!File created by NanoVNA-F V2
# Hz S RI R 50
 400000000  0.528930  0.161214
 400333333  0.533047  0.149652
 400666666  0.535841  0.134550
 400999999  0.540272  0.122499
 401333332  0.542914  0.108824
 401666665  0.545906  0.095806
 401999998  0.550206  0.083241
 402333331  0.551473  0.067478
 402666664  0.555358  0.054823
 402999997  0.557621  0.042372
 403333330  0.559951  0.025575
 403666663  0.562552  0.012229
 403999996  0.564297 -0.003804
 404333329  0.566819 -0.018638
 404666662  0.569072 -0.034026
 404999995  0.569637 -0.051549
 405333328  0.570943 -0.066649
 405666661  0.569352 -0.084479
 405999994  0.569889 -0.102314
 406333327  0.568339 -0.120856
 406666660  0.564631 -0.138498
 406999993  0.561112 -0.157275
 407333326  0.555700 -0.175547
 407666659  0.551013 -0.193762
 407999992  0.544312 -0.209982
 408333325  0.535953 -0.228838
 408666658  0.525330 -0.246139
 408999991  0.518416 -0.261664
 409333324  0.507891 -0.277240
 409666657  0.495896 -0.292714
 409999990  0.485379 -0.307428
 410333323  0.473773 -0.319092
 410666656  0.461400 -0.331479
 410999989  0.449409 -0.342927
 411333322  0.439589 -0.354540
 411666655  0.428928 -0.365315
 411999988  0.417493 -0.376316
 412333321  0.405184 -0.386946
 412666654  0.393936 -0.396515
 412999987  0.383827 -0.407551
 413333320  0.371559 -0.418603
 413666653  0.359213 -0.428379
 413999986  0.347297 -0.439035
 414333319  0.334673 -0.448853
 414666652  0.320813 -0.459877
 414999985  0.306225 -0.469358
 415333318  0.290311 -0.479095
 415666651  0.275014 -0.488758
 415999984  0.257165 -0.497128
 416333317  0.240852 -0.503593
 416666650  0.223053 -0.509934
 416999983  0.207954 -0.516870
 417333316  0.187572 -0.520970
 417666649  0.171342 -0.523477
 417999982  0.152818 -0.525895
 418333315  0.135727 -0.529948
 418666648  0.118023 -0.532004
 418999981  0.101014 -0.532146
 419333314  0.084295 -0.531748
 419666647  0.067704 -0.531548
 419999980  0.048506 -0.531617
 420333313  0.033492 -0.529457
 420666646  0.017578 -0.527253
 420999979  0.003472 -0.525599
 421333312 -0.014672 -0.522673
 421666645 -0.027423 -0.518572
 421999978 -0.040465 -0.516065
 422333311 -0.055319 -0.512268
 422666644 -0.066664 -0.509090
 422999977 -0.080728 -0.507654
 423333310 -0.093775 -0.504832
 423666643 -0.108180 -0.502709
 423999976 -0.120096 -0.500245
 424333309 -0.134277 -0.498171
 424666642 -0.150052 -0.493947
 424999975 -0.165318 -0.492281
 425333308 -0.180236 -0.489661
 425666641 -0.197400 -0.483963
 425999974 -0.213711 -0.477726
 426333307 -0.229575 -0.472328
 426666640 -0.246390 -0.466893
 426999973 -0.262382 -0.455931
 427333306 -0.276886 -0.448259
 427666639 -0.292133 -0.438244
 427999972 -0.306280 -0.430604
 428333305 -0.321043 -0.420215
 428666638 -0.338051 -0.409800
 428999971 -0.350241 -0.399557
 429333304 -0.365684 -0.388341
 429666637 -0.380561 -0.375556
 429999970 -0.392351 -0.364060
 430333303 -0.404944 -0.350957
 430666636 -0.418462 -0.337300
 430999969 -0.432367 -0.321713
 431333302 -0.444660 -0.307962
 431666635 -0.456645 -0.291681
 431999968 -0.468125 -0.276401
 432333301 -0.478847 -0.258850
 432666634 -0.489757 -0.240588
 432999967 -0.498298 -0.223665
 433333300 -0.507357 -0.207000
 433666633 -0.515723 -0.184701
 433999966 -0.522754 -0.167538
 434333299 -0.529259 -0.146983
 434666632 -0.460729  0.244464
 434999965 -0.539450 -0.109588
 435333298 -0.542796 -0.089356
 435666631 -0.546687 -0.069510
 435999964 -0.550218 -0.050135
 436333297 -0.551871 -0.031008
 436666630 -0.554921 -0.010853
 436999963 -0.556554  0.009299
 437333296 -0.557454  0.029593
 437666629 -0.556512  0.049802
 437999962 -0.556623  0.072909
 438333295 -0.555647  0.091738
 438666628 -0.553787  0.113085
 438999961 -0.549863  0.135233
 439333294 -0.548881  0.156493
 439666627 -0.543451  0.178364
 439999960 -0.538667  0.199930
 440333293 -0.530880  0.221007
 440666626 -0.524390  0.243899
 440999959 -0.515514  0.265792
 441333292 -0.504544  0.285984
 441666625 -0.494084  0.306347
 441999958 -0.482897  0.326681
 442333291 -0.468146  0.349132
 442666624 -0.454296  0.364935
 442999957 -0.440393  0.384939
 443333290 -0.425310  0.401351
 443666623 -0.408690  0.420083
 443999956 -0.391016  0.436667
 444333289 -0.374048  0.451121
 444666622 -0.354474  0.465747
 444999955 -0.336622  0.479203
 445333288 -0.317148  0.491048
 445666621 -0.297322  0.505490
 445999954 -0.274467  0.515003
 446333287 -0.254089  0.525725
 446666620 -0.233916  0.535515
 446999953 -0.212386  0.543588
 447333286 -0.188245  0.550758
 447666619 -0.165829  0.555935
 447999952 -0.145456  0.562773
 448333285 -0.120327  0.564686
 448666618 -0.097332  0.569082
 448999951 -0.074928  0.571584
 449333284 -0.050757  0.572222
 449666617 -0.026088  0.572288
 449999950 -0.003393  0.568559
 450333283  0.020588  0.564788
 450666616  0.044466  0.561502
 450999949  0.069147  0.556033
 451333282  0.090295  0.551191
 451666615  0.114477  0.541624
 451999948  0.136833  0.529948
 452333281  0.157351  0.520385
 452666614  0.178141  0.508584
 452999947  0.199723  0.494820
 453333280  0.218354  0.478281
 453666613  0.236366  0.462549
 453999946  0.254023  0.446726
 454333279  0.268532  0.425910
 454666612  0.285400  0.405162
 454999945  0.298785  0.382206
 455333278  0.309148  0.361864
 455666611  0.317267  0.336360
 455999944  0.324565  0.310972
 456333277  0.330133  0.283042
 456666610  0.330903  0.258879
 456999943  0.327436  0.230590
 457333276  0.323857  0.201993
 457666609  0.316112  0.175138
 457999942  0.304236  0.147989
 458333275  0.288144  0.122405
 458666608  0.267734  0.099545
 458999941  0.242672  0.077982
 459333274  0.213736  0.061363
 459666607  0.181860  0.049004
 459999940  0.144750  0.041914
 460333273  0.106108  0.042986
 460666606  0.065115  0.049226
 460999939  0.026208  0.066767
 461333272 -0.011625  0.091092
 461666605 -0.045719  0.124217
 461999938 -0.071464  0.167709
 462333271 -0.089621  0.217216
 462666604 -0.097037  0.269950
 462999937 -0.095527  0.323954
 463333270 -0.084306  0.378015
 463666603 -0.060589  0.428896
 463999936 -0.027281  0.476147
 464333269  0.012695  0.517256
 464666602  0.059606  0.551516
 464999935  0.106192  0.577168
 465333268  0.159884  0.593616
 465666601  0.208767  0.601760
 465999934  0.262910  0.604307
 466333267  0.314830  0.602856
 466666600  0.362287  0.592117
 466999933  0.410337  0.578936
 467333266  0.451893  0.559739
 467666599  0.489609  0.540672
 467999932  0.527257  0.515877
 468333265  0.560475  0.488334
 468666598  0.590662  0.460547
 468999931  0.619977  0.433296
 469333264  0.644982  0.400523
 469666597  0.667783  0.369786
 469999930  0.690057  0.337734
 470333263  0.706139  0.307445
 470666596  0.721654  0.271453
 470999929  0.733510  0.242063
 471333262  0.745705  0.207213
 471666595  0.754477  0.173464
 471999928  0.763370  0.141298
 472333261  0.767839  0.106442
 472666594  0.771751  0.073938
 472999927  0.774408  0.044257
 473333260  0.774522  0.009969
 473666593  0.773095 -0.020792
 473999926  0.771763 -0.052326
 474333259  0.769125 -0.083251
 474666592  0.764535 -0.112641
 474999925  0.756893 -0.143481
 475333258  0.750128 -0.169884
 475666591  0.740879 -0.200459
 475999924  0.730274 -0.227940
 476333257  0.717605 -0.254690
 476666590  0.706322 -0.282131
 476999923  0.693027 -0.306729
 477333256  0.677659 -0.330890
 477666589  0.663339 -0.354089
 477999922  0.642640 -0.377631
 478333255  0.628455 -0.395560
 478666588  0.608178 -0.418633
 478999921  0.590255 -0.433957
 479333254  0.569353 -0.451779
 479666587  0.549516 -0.464234
 479999920  0.528294 -0.476731
 480333253  0.507041 -0.489184
 480666586  0.488011 -0.497928
 480999919  0.469957 -0.503133
 481333252  0.457460 -0.505800
 481666585  0.445279 -0.511337
 481999918  0.434830 -0.516998
 482333251  0.427874 -0.524090
 482666584  0.422775 -0.531511
 482999917  0.421814 -0.546251
 483333250  0.416397 -0.563492
 483666583  0.409368 -0.583052
 483999916  0.402113 -0.606562
 484333249  0.383893 -0.631292
 484666582  0.367791 -0.657872
 484999915  0.346489 -0.681301
 485333248  0.320950 -0.702794
 485666581  0.293587 -0.722094
 485999914  0.263504 -0.739847
 486333247  0.232274 -0.755211
 486666580  0.200782 -0.764606
 486999913  0.171103 -0.777885
 487333246  0.136825 -0.786031
 487666579  0.104354 -0.791557
 487999912  0.073468 -0.797655
 488333245  0.039221 -0.800421
 488666578  0.006964 -0.802875
 488999911 -0.021887 -0.802150
 489333244 -0.056528 -0.801374
 489666577 -0.090085 -0.796127
 489999910 -0.120003 -0.791765
 490333243 -0.151654 -0.786813
 490666576 -0.182299 -0.779676
 490999909 -0.213253 -0.769470
 491333242 -0.243340 -0.760929
 491666575 -0.270044 -0.748634
 491999908 -0.299123 -0.736240
 492333241 -0.327152 -0.723439
 492666574 -0.353701 -0.712056
 492999907 -0.379727 -0.697051
 493333240 -0.406673 -0.679553
 493666573 -0.431921 -0.663681
 493999906 -0.457751 -0.645261
 494333239 -0.480107 -0.627534
 494666572 -0.503462 -0.607958
 494999905 -0.524127 -0.587149
 495333238 -0.547295 -0.566723
 495666571 -0.565409 -0.547080
 495999904 -0.585884 -0.523438
 496333237 -0.603394 -0.501305
 496666570 -0.622716 -0.477040
 496999903 -0.637676 -0.453119
 497333236 -0.656001 -0.428039
 497666569 -0.668601 -0.404211
 497999902 -0.683362 -0.375888
 498333235 -0.697885 -0.351144
 498666568 -0.709454 -0.324865
 498999901 -0.720810 -0.298060
 499333234 -0.730001 -0.270777
 499666567 -0.739001 -0.243253
 499999900 -0.747226 -0.216815
