!File created by NanoVNA-F V2
# Hz S RI R 50
 800000000 -0.101226 -0.018789
 801000000 -0.062052 -0.043874
 802000000 -0.099428 -0.029608
 803000000 -0.122514  0.003349
 804000000 -0.120648  0.042823
 805000000 -0.095578  0.071577
 806000000 -0.056593  0.079332
 807000000 -0.020670  0.059594
 808000000 -0.004105  0.019096
 809000000 -0.015795 -0.026183
 810000000 -0.051746 -0.058043
 811000000 -0.102011 -0.063654
 812000000 -0.149047 -0.040454
 813000000 -0.175781  0.004465
 814000000 -0.174289  0.056218
 815000000 -0.143359  0.097264
 816000000 -0.094691  0.113314
 817000000 -0.047078  0.096953
 818000000 -0.020916  0.055077
 819000000 -0.026234  0.009246
 820000000 -0.057150 -0.024576
 821000000 -0.102680 -0.032465
 822000000 -0.140781 -0.012675
 823000000 -0.162800  0.025048
 824000000 -0.158480  0.067100
 825000000 -0.131833  0.098664
 826000000 -0.091368  0.108606
 827000000 -0.056380  0.093094
 828000000 -0.036347  0.061124
 829000000 -0.039792  0.025249
 830000000 -0.062091  0.000095
 831000000 -0.092664 -0.007071
 832000000 -0.116981  0.002086
 833000000 -0.132395  0.021953
 834000000 -0.132256  0.041929
 835000000 -0.121277  0.055863
 836000000 -0.107648  0.057274
 837000000 -0.099103  0.048699
 838000000 -0.099392  0.037223
 839000000 -0.109850  0.028977
 840000000 -0.125775  0.026146
 841000000 -0.139024  0.034093
 842000000 -0.149904  0.046745
 843000000 -0.153682  0.063267
 844000000 -0.150138  0.078579
 845000000 -0.141356  0.090756
 846000000 -0.130579  0.096495
 847000000 -0.119422  0.099726
 848000000 -0.111443  0.098101
 849000000 -0.105083  0.096043
 850000000 -0.099135  0.091711
 851000000 -0.094418  0.088169
 852000000 -0.093622  0.080389
 853000000 -0.096302  0.073126
 854000000 -0.102237  0.068381
 855000000 -0.112838  0.067385
 856000000 -0.121886  0.074330
 857000000 -0.126285  0.085163
 858000000 -0.123920  0.099342
 859000000 -0.114625  0.109959
 860000000 -0.100880  0.114444
 861000000 -0.085703  0.111494
 862000000 -0.077261  0.101694
 863000000 -0.074680  0.090241
 864000000 -0.076851  0.078265
 865000000 -0.082768  0.071887
 866000000 -0.090499  0.069591
 867000000 -0.097734  0.070654
 868000000 -0.101778  0.075252
 869000000 -0.102917  0.078381
 870000000 -0.100463  0.081166
 871000000 -0.099556  0.081900
 872000000 -0.096626  0.078115
 873000000 -0.097519  0.073963
 874000000 -0.103153  0.069272
 875000000 -0.109045  0.066222
 876000000 -0.117579  0.068079
 877000000 -0.127347  0.072247
 878000000 -0.134230  0.081335
 879000000 -0.139071  0.093385
 880000000 -0.137267  0.107321
 881000000 -0.128680  0.120160
 882000000 -0.112884  0.128792
 883000000 -0.097074  0.127912
 884000000 -0.082976  0.122203
 885000000 -0.074503  0.106059
 886000000 -0.075819  0.090092
 887000000 -0.085014  0.076137
 888000000 -0.100167  0.068963
 889000000 -0.116453  0.073514
 890000000 -0.128068  0.085438
 891000000 -0.129622  0.100548
 892000000 -0.122343  0.114899
 893000000 -0.106676  0.120262
 894000000 -0.091320  0.114794
 895000000 -0.083120  0.098563
 896000000 -0.085034  0.081369
 897000000 -0.098902  0.066865
 898000000 -0.122582  0.061211
 899000000 -0.146462  0.070052
 900000000 -0.161055  0.094603
