!File created by NanoVNA-F V2
# Hz S RI R 50
 800000000 -0.020338 -0.035058  1.367202 -0.850328 0 0 0 0
 801000000 -0.062292 -0.044677  1.473422 -0.009961 0 0 0 0
 802000000 -0.100490 -0.030212  1.199558  0.224909 0 0 0 0
 803000000 -0.123224  0.002896 -0.739882  0.877686 0 0 0 0
 804000000 -0.121098  0.042322 -2.071635 -1.896111 0 0 0 0
 805000000 -0.095646  0.071522  0.760885  0.396161 0 0 0 0
 806000000 -0.057755  0.078201  4.209805 -4.639883 0 0 0 0
 807000000 -0.020956  0.058818  0.510569  0.774749 0 0 0 0
 808000000 -0.004787  0.017882  1.031690  0.782536 0 0 0 0
 809000000 -0.016994 -0.026774  3.494050  1.735640 0 0 0 0
 810000000 -0.052266 -0.058990  1.111897 -2.524676 0 0 0 0
 811000000 -0.102751 -0.063623  0.115303  0.516265 0 0 0 0
 812000000 -0.149640 -0.040742  0.301228  0.027936 0 0 0 0
 813000000 -0.175883  0.003238  1.776382  0.433073 0 0 0 0
 814000000 -0.173902  0.055693  0.556713 -0.382039 0 0 0 0
 815000000 -0.143280  0.096765  0.944150  0.815009 0 0 0 0
 816000000 -0.093993  0.113025  0.574260 -1.013839 0 0 0 0
 817000000 -0.047847  0.095946  1.196185  0.423809 0 0 0 0
 818000000 -0.021669  0.055326  1.186695 -0.123157 0 0 0 0
 819000000 -0.026684  0.009096  2.242751 -0.227227 0 0 0 0
 820000000 -0.058100 -0.024825  1.383564 -0.073037 0 0 0 0
 821000000 -0.102355 -0.032132  0.723897 -2.137044 0 0 0 0
 822000000 -0.140844 -0.012761 -0.579725 -9.095242 0 0 0 0
 823000000 -0.163342  0.025056  0.874235 -0.429610 0 0 0 0
 824000000 -0.158769  0.067249  0.394859 -3.925793 0 0 0 0
 825000000 -0.131766  0.098674  0.072123  0.071101 0 0 0 0
 826000000 -0.091372  0.108007  1.328190  1.416687 0 0 0 0
 827000000 -0.055968  0.092179  1.035683  0.711588 0 0 0 0
 828000000 -0.036126  0.060707  0.794344  1.281755 0 0 0 0
 829000000 -0.040065  0.024952  4.270694 -0.198676 0 0 0 0
 830000000 -0.062856 -0.000319 -2.632301  0.508751 0 0 0 0
 831000000 -0.092022 -0.007463  0.435887  1.998238 0 0 0 0
 832000000 -0.117268  0.001876  1.436001 -0.796930 0 0 0 0
 833000000 -0.131801  0.022111  1.322727  0.492662 0 0 0 0
 834000000 -0.132158  0.041760  0.006952 -0.523399 0 0 0 0
 835000000 -0.121437  0.055054  0.450003 -0.061082 0 0 0 0
 836000000 -0.107886  0.055937  1.420887  0.080365 0 0 0 0
 837000000 -0.099971  0.047743  1.918398 -0.137275 0 0 0 0
 838000000 -0.044789  0.064484  0.000050  0.000007 0 0 0 0
 839000000 -0.110509  0.028372 -0.139909  1.611789 0 0 0 0
 840000000 -0.125195  0.026920  0.468568 -2.629505 0 0 0 0
 841000000 -0.139426  0.034059  0.063145  1.312695 0 0 0 0
 842000000 -0.150612  0.046380  0.631266 -0.067114 0 0 0 0
 843000000 -0.153428  0.063416  1.802610  0.453426 0 0 0 0
 844000000 -0.150491  0.078657  1.551019  0.355019 0 0 0 0
 845000000 -0.141006  0.090267  0.774379  0.962337 0 0 0 0
 846000000 -0.131330  0.097493 -0.218721  0.884966 0 0 0 0
 847000000 -0.119818  0.099796  0.650952 -0.501971 0 0 0 0
 848000000 -0.111142  0.098237  2.051656 -1.773061 0 0 0 0
 849000000 -0.104856  0.095175  2.538703 -0.677014 0 0 0 0
 850000000 -0.098718  0.092113  1.077334  0.167602 0 0 0 0
 851000000 -0.095265  0.086849  0.696851 -0.314076 0 0 0 0
 852000000 -0.093543  0.081063  0.112944 -0.835341 0 0 0 0
 853000000 -0.096698  0.073982  0.821153 -0.377374 0 0 0 0
 854000000 -0.103178  0.068256  1.986786 -1.196475 0 0 0 0
 855000000 -0.113266  0.068081  0.350948  3.270406 0 0 0 0
 856000000 -0.122681  0.074703  1.658421 -0.658193 0 0 0 0
 857000000 -0.127390  0.085782  0.630298  2.983459 0 0 0 0
 858000000 -0.124441  0.100699  0.621884  0.112635 0 0 0 0
 859000000 -0.116434  0.110283 -2.005108 -1.023277 0 0 0 0
 860000000 -0.101641  0.113871 -0.031586  1.534262 0 0 0 0
 861000000 -0.086261  0.111219  0.268201  0.897681 0 0 0 0
 862000000 -0.077554  0.101686  0.897427  0.008762 0 0 0 0
 863000000 -0.074418  0.089762 -0.855004 -0.664318 0 0 0 0
 864000000 -0.076819  0.078579  0.719642 -1.684414 0 0 0 0
 865000000 -0.083263  0.071472  0.383224  2.369484 0 0 0 0
 866000000 -0.090443  0.069571  0.840442  0.717526 0 0 0 0
 867000000 -0.098054  0.071344  1.777041  0.367576 0 0 0 0
 868000000 -0.101992  0.074478  2.366455 -0.190900 0 0 0 0
 869000000 -0.103847  0.077777  1.034711 -0.454241 0 0 0 0
 870000000 -0.101313  0.080693  1.645739  1.099669 0 0 0 0
 871000000 -0.099901  0.081752  7.248008  1.823746 0 0 0 0
 872000000 -0.098093  0.078117  0.829288 -3.878687 0 0 0 0
 873000000 -0.097300  0.074786  0.211718 -0.658947 0 0 0 0
 874000000 -0.102514  0.068445  2.024529  0.066313 0 0 0 0
 875000000 -0.109613  0.066545  1.273216  1.887538 0 0 0 0
 876000000 -0.117892  0.069170  0.337193 -1.188934 0 0 0 0
 877000000 -0.128455  0.071443  1.861243  9.524422 0 0 0 0
 878000000 -0.135404  0.081629  0.424416  0.226163 0 0 0 0
 879000000 -0.139624  0.093849  0.992466 -0.458662 0 0 0 0
 880000000 -0.138329  0.107571  0.530838  0.098812 0 0 0 0
 881000000 -0.128855  0.119755 -2.133862 -1.447403 0 0 0 0
 882000000 -0.114628  0.130149  1.184653 -0.369139 0 0 0 0
 883000000 -0.098323  0.128234 -0.343612  0.245971 0 0 0 0
 884000000 -0.083180  0.120908  1.667263 -0.936815 0 0 0 0
 885000000 -0.074826  0.106108  1.693934 -0.653631 0 0 0 0
 886000000 -0.075915  0.090196  0.121853  0.976812 0 0 0 0
 887000000 -0.084970  0.075731  5.671138 -0.041906 0 0 0 0
 888000000 -0.100781  0.067872  1.238729 -1.471066 0 0 0 0
 889000000 -0.117768  0.073155 -11.134793 -2.432911 0 0 0 0
 890000000 -0.128659  0.084865  0.566364 -0.333268 0 0 0 0
 891000000 -0.129965  0.101814  1.381966  2.074693 0 0 0 0
 892000000 -0.122386  0.115447  0.887585  1.232458 0 0 0 0
 893000000 -0.106622  0.119150  0.489584  0.501797 0 0 0 0
 894000000 -0.092679  0.114561  0.489542 -0.193438 0 0 0 0
 895000000 -0.084203  0.099707  3.020742  0.431087 0 0 0 0
 896000000 -0.086121  0.080251  1.148118  0.580287 0 0 0 0
 897000000 -0.100221  0.066256  2.219626  0.348094 0 0 0 0
 898000000 -0.123690  0.062228  1.245809  0.015889 0 0 0 0
 899000000 -0.146850  0.071449  0.394023 -0.102763 0 0 0 0
 900000000 -0.160987  0.094525  1.505047 -2.387485 0 0 0 0
