!File created by NanoVNA-F V2
# Hz S RI R 50
 300000000  0.257448  0.897270  0.000152 -0.000305 0 0 0 0
 301000000  0.819353 -0.636236  0.000048  0.000181 0 0 0 0
 302000000  0.819296 -0.639250  0.000172  0.000088 0 0 0 0
 303000000  0.817269 -0.641224  0.000114  0.000094 0 0 0 0
 304000000  0.816574 -0.646914  0.000121  0.000169 0 0 0 0
 305000000  0.815231 -0.647269  0.000149  0.000217 0 0 0 0
 306000000  0.812832 -0.650564  0.000086  0.000071 0 0 0 0
 307000000  0.809506 -0.650464  0.000010  0.000141 0 0 0 0
 308000000  0.810370 -0.655250  0.000039  0.000235 0 0 0 0
 309000000  0.808235 -0.654477  0.000093  0.000150 0 0 0 0
 310000000  0.808281 -0.659451 -0.000020  0.000137 0 0 0 0
 311000000  0.808016 -0.661484  0.000002  0.000147 0 0 0 0
 312000000  0.806949 -0.664144  0.000036  0.000225 0 0 0 0
 313000000  0.802538 -0.663894  0.000132  0.000133 0 0 0 0
 314000000  0.802025 -0.667258  0.000023  0.000205 0 0 0 0
 315000000  0.797415 -0.669134  0.000100  0.000087 0 0 0 0
 316000000  0.799226 -0.674019  0.000029  0.000038 0 0 0 0
 317000000  0.797204 -0.676364  0.000175  0.000147 0 0 0 0
 318000000  0.793224 -0.676769  0.000113  0.000114 0 0 0 0
 319000000  0.791957 -0.679252  0.000116  0.000089 0 0 0 0
 320000000  0.789836 -0.683803  0.000068  0.000127 0 0 0 0
 321000000  0.789160 -0.684864  0.000165  0.000038 0 0 0 0
 322000000  0.786762 -0.689465  0.000034  0.000078 0 0 0 0
 323000000  0.784868 -0.690319  0.000010  0.000159 0 0 0 0
 324000000  0.782582 -0.692255  0.000055  0.000152 0 0 0 0
 325000000  0.779191 -0.695947  0.000027  0.000086 0 0 0 0
 326000000  0.778754 -0.697168  0.000045  0.000061 0 0 0 0
 327000000  0.777479 -0.699719  0.000059  0.000044 0 0 0 0
 328000000  0.775746 -0.701574  0.000150  0.000129 0 0 0 0
 329000000  0.773277 -0.706374  0.000022  0.000089 0 0 0 0
 330000000  0.770912 -0.706714 -0.000013  0.000114 0 0 0 0
 331000000  0.769963 -0.707923  0.000024  0.000090 0 0 0 0
 332000000  0.770152 -0.711724  0.000022  0.000172 0 0 0 0
 333000000  0.763590 -0.715730  0.000032  0.000059 0 0 0 0
 334000000  0.764734 -0.719362 -0.000009  0.000114 0 0 0 0
 335000000  0.759614 -0.719244 -0.000002  0.000175 0 0 0 0
 336000000  0.758865 -0.720122  0.000174  0.000063 0 0 0 0
 337000000  0.753035 -0.717240  0.000057  0.000093 0 0 0 0
 338000000  0.755178 -0.724391  0.000012  0.000094 0 0 0 0
 339000000  0.754451 -0.727657  0.000086  0.000049 0 0 0 0
 340000000  0.753753 -0.730291  0.000012  0.000049 0 0 0 0
 341000000  0.752141 -0.731823 -0.000008  0.000033 0 0 0 0
 342000000  0.747937 -0.735154  0.000002  0.000043 0 0 0 0
 343000000  0.746624 -0.738083  0.000005  0.000140 0 0 0 0
 344000000  0.742169 -0.743191 -0.000076 -0.000018 0 0 0 0
 345000000  0.742064 -0.748730  0.000059  0.000054 0 0 0 0
 346000000  0.736477 -0.749237  0.000056  0.000027 0 0 0 0
 347000000  0.735177 -0.750680  0.000098  0.000068 0 0 0 0
 348000000  0.731443 -0.753417 -0.000018  0.000049 0 0 0 0
 349000000  0.732238 -0.754657  0.000016  0.000159 0 0 0 0
 350000000  0.728889 -0.760108  0.000008  0.000094 0 0 0 0
 351000000  0.724514 -0.762170  0.000098 -0.000056 0 0 0 0
 352000000  0.723602 -0.764175 -0.000017  0.000029 0 0 0 0
 353000000  0.721921 -0.765500 -0.000020 -0.000026 0 0 0 0
 354000000  0.719247 -0.770139 -0.000091  0.000121 0 0 0 0
 355000000  0.713809 -0.772208  0.000020  0.000062 0 0 0 0
 356000000  0.717240 -0.774402 -0.000037 -0.000053 0 0 0 0
 357000000  0.714169 -0.781380  0.000015  0.000129 0 0 0 0
 358000000  0.707384 -0.783102 -0.000011  0.000121 0 0 0 0
 359000000  0.706072 -0.785663 -0.000037  0.000031 0 0 0 0
 360000000  0.702898 -0.788085 -0.000109  0.000018 0 0 0 0
 361000000  0.698094 -0.793630  0.000027 -0.000004 0 0 0 0
 362000000  0.694385 -0.792995 -0.000036  0.000051 0 0 0 0
 363000000  0.693433 -0.796412  0.000011 -0.000040 0 0 0 0
 364000000  0.690185 -0.798942 -0.000005 -0.000060 0 0 0 0
 365000000  0.685475 -0.800328 -0.000010  0.000080 0 0 0 0
 366000000  0.681367 -0.804241 -0.000071  0.000079 0 0 0 0
 367000000  0.679171 -0.806650 -0.000020  0.000007 0 0 0 0
 368000000  0.678116 -0.811263 -0.000080 -0.000019 0 0 0 0
 369000000  0.674882 -0.813480 -0.000211  0.000064 0 0 0 0
 370000000  0.670644 -0.820743  0.000079  0.000059 0 0 0 0
 371000000  0.669475 -0.823659 -0.000056 -0.000069 0 0 0 0
 372000000  0.663088 -0.826419 -0.000155 -0.000008 0 0 0 0
 373000000  0.656869 -0.831488 -0.000087 -0.000028 0 0 0 0
 374000000  0.651769 -0.834400 -0.000094 -0.000098 0 0 0 0
 375000000  0.647858 -0.837831 -0.000030 -0.000032 0 0 0 0
 376000000  0.642487 -0.839130 -0.000112  0.000001 0 0 0 0
 377000000  0.639653 -0.841134 -0.000149  0.000025 0 0 0 0
 378000000  0.637533 -0.842907 -0.000211  0.000026 0 0 0 0
 379000000  0.631943 -0.846261 -0.000032 -0.000052 0 0 0 0
 380000000  0.630135 -0.848012 -0.000079  0.000031 0 0 0 0
 381000000  0.626961 -0.856180 -0.000017 -0.000059 0 0 0 0
 382000000  0.620928 -0.857717 -0.000166 -0.000051 0 0 0 0
 383000000  0.616189 -0.865419 -0.000068 -0.000037 0 0 0 0
 384000000  0.611033 -0.872363 -0.000073 -0.000068 0 0 0 0
 385000000  0.603057 -0.875368 -0.000107 -0.000092 0 0 0 0
 386000000  0.597145 -0.880288 -0.000141 -0.000046 0 0 0 0
 387000000  0.587670 -0.883117 -0.000186 -0.000078 0 0 0 0
 388000000  0.581059 -0.886070 -0.000077 -0.000043 0 0 0 0
 389000000  0.573220 -0.889151 -0.000071 -0.000014 0 0 0 0
 390000000  0.569818 -0.891945 -0.000094 -0.000099 0 0 0 0
 391000000  0.559212 -0.891398 -0.000207 -0.000242 0 0 0 0
 392000000  0.558287 -0.894626 -0.000295 -0.000245 0 0 0 0
 393000000  0.555730 -0.899790 -0.000292 -0.000065 0 0 0 0
 394000000  0.548680 -0.906982 -0.000162 -0.000049 0 0 0 0
 395000000  0.541986 -0.911724 -0.000239 -0.000014 0 0 0 0
 396000000  0.534869 -0.919652 -0.000244 -0.000054 0 0 0 0
 397000000  0.524038 -0.928493 -0.000218 -0.000135 0 0 0 0
 398000000  0.513242 -0.937234 -0.000262 -0.000093 0 0 0 0
 399000000  0.501419 -0.942297 -0.000338 -0.000073 0 0 0 0
 400000000  0.486630 -0.947481 -0.000333 -0.000100 0 0 0 0
 401000000  0.466424 -0.946770 -0.000434  0.000033 0 0 0 0
 402000000  0.459552 -0.945834 -0.000358  0.000184 0 0 0 0
 403000000  0.446420 -0.953901 -0.000231  0.000248 0 0 0 0
 404000000  0.427229 -0.944806  0.000013  0.000334 0 0 0 0
 405000000  0.430051 -0.943756  0.000333 -0.000124 0 0 0 0
 406000000  0.422522 -0.958654  0.000258 -0.000604 0 0 0 0
 407000000  0.404905 -0.965416  0.000023 -0.001246 0 0 0 0
 408000000  0.398423 -0.972636 -0.000931 -0.000546 0 0 0 0
 409000000  0.380161 -0.993717 -0.000666 -0.000273 0 0 0 0
 410000000  0.352796 -1.004696 -0.000633 -0.000170 0 0 0 0
 411000000  0.326181 -1.016374 -0.000631 -0.000160 0 0 0 0
 412000000  0.292313 -1.022419 -0.000481 -0.000033 0 0 0 0
 413000000  0.250928 -1.022054 -0.000305 -0.000096 0 0 0 0
 414000000  0.210962 -1.005696 -0.000306 -0.000547 0 0 0 0
 415000000  0.185354 -1.006330 -0.000603 -0.000365 0 0 0 0
 416000000  0.125774 -0.988098 -0.000804 -0.000376 0 0 0 0
 417000000  0.121272 -0.909917 -0.000852 -0.000091 0 0 0 0
 418000000  0.152525 -0.955919 -0.000362  0.000476 0 0 0 0
 419000000  0.093739 -0.971716  0.000290  0.000564 0 0 0 0
 420000000  0.090055 -0.957572  0.001470 -0.000497 0 0 0 0
 421000000  0.024508 -1.018468  0.000593 -0.001379 0 0 0 0
 422000000 -0.079553 -1.019411 -0.000011 -0.002237 0 0 0 0
 423000000 -0.183684 -0.999813 -0.002099 -0.000888 0 0 0 0
 424000000 -0.321387 -0.948281 -0.001025  0.000581 0 0 0 0
 425000000 -0.465830 -0.843068 -0.001617  0.001790 0 0 0 0
 426000000 -0.586863 -0.619081 -0.014040  0.030112 0 0 0 0
 427000000 -0.628490 -0.446571  0.066301 -0.001634 0 0 0 0
 428000000 -0.550323  0.147603  0.035387 -0.012811 0 0 0 0
 429000000 -0.100996 -0.435669  0.336168 -0.128054 0 0 0 0
 430000000 -0.277612  0.028597 -0.232747 -0.587028 0 0 0 0
 431000000 -0.010606 -0.018370 -0.761722 -0.007940 0 0 0 0
 432000000 -0.013956 -0.038451 -0.468422  0.638656 0 0 0 0
 433000000  0.034070 -0.012459  0.206218  0.785376 0 0 0 0
 434000000  0.057712 -0.035100  0.702152  0.398948 0 0 0 0
 435000000  0.075865  0.044613  0.744497 -0.274013 0 0 0 0
 436000000  0.059788  0.042409  0.232872 -0.719071 0 0 0 0
 437000000 -0.063477  0.353867 -0.450715 -0.426462 0 0 0 0
 438000000  0.387348  0.619593 -0.299856  0.085434 0 0 0 0
 439000000  0.729887  0.459613 -0.091610  0.106321 0 0 0 0
 440000000  0.883908  0.266757 -0.023287  0.065392 0 0 0 0
 441000000  0.950137  0.103296 -0.005312  0.039660 0 0 0 0
 442000000  0.975205 -0.031189  0.001418  0.025465 0 0 0 0
 443000000  0.985082 -0.141120  0.003746  0.016802 0 0 0 0
 444000000  0.973830 -0.238236  0.004886  0.010897 0 0 0 0
 445000000  0.955293 -0.320307  0.004177  0.006557 0 0 0 0
 446000000  0.926030 -0.398555  0.001333  0.003291 0 0 0 0
 447000000  0.851382 -0.456754 -0.001165  0.007142 0 0 0 0
 448000000  0.820710 -0.451861  0.004239  0.011143 0 0 0 0
 449000000  0.795173 -0.449862  0.006846  0.006087 0 0 0 0
 450000000  0.767627 -0.443768  0.006125  0.003585 0 0 0 0
 451000000  0.777413 -0.421878  0.008722 -0.001837 0 0 0 0
 452000000  0.804075 -0.446971  0.003126 -0.005783 0 0 0 0
 453000000  0.815422 -0.499050  0.000084 -0.002751 0 0 0 0
 454000000  0.822749 -0.515422 -0.001979 -0.000429 0 0 0 0
 455000000  0.795407 -0.525686 -0.000690  0.000458 0 0 0 0
 456000000  0.792545 -0.548629 -0.000136  0.000628 0 0 0 0
 457000000  0.771675 -0.564629 -0.000783 -0.000013 0 0 0 0
 458000000  0.752657 -0.551773 -0.000631  0.000427 0 0 0 0
 459000000  0.754721 -0.561054  0.000014  0.000196 0 0 0 0
 460000000  0.758093 -0.583126 -0.000280  0.000255 0 0 0 0
 461000000  0.747867 -0.566576 -0.000290  0.000306 0 0 0 0
 462000000  0.730400 -0.569176  0.000197  0.000266 0 0 0 0
 463000000  0.741617 -0.590272 -0.000165  0.000385 0 0 0 0
 464000000  0.735599 -0.588824 -0.000163  0.000478 0 0 0 0
 465000000  0.738715 -0.581280 -0.000279  0.000499 0 0 0 0
 466000000  0.730366 -0.601359  0.000399  0.000229 0 0 0 0
 467000000  0.747497 -0.620432 -0.000097  0.000347 0 0 0 0
 468000000  0.742388 -0.605202  0.000000  0.000404 0 0 0 0
 469000000  0.704870 -0.642278  0.000213  0.000263 0 0 0 0
 470000000  0.724144 -0.659770 -0.000034  0.000386 0 0 0 0
 471000000  0.727012 -0.631165  0.000670  0.000273 0 0 0 0
 472000000  0.685283 -0.645342  0.000131  0.000417 0 0 0 0
 473000000  0.702112 -0.673003  0.000064  0.000118 0 0 0 0
 474000000  0.710844 -0.650797  0.000406 -0.000265 0 0 0 0
 475000000  0.679220 -0.646085  0.000108  0.000270 0 0 0 0
 476000000  0.700580 -0.673490 -0.000045  0.000170 0 0 0 0
 477000000  0.700228 -0.669197  0.000134 -0.000137 0 0 0 0
 478000000  0.687801 -0.658598 -0.000099  0.000381 0 0 0 0
 479000000  0.689237 -0.683492 -0.000006  0.000030 0 0 0 0
 480000000  0.700254 -0.676690  0.000205  0.000212 0 0 0 0
 481000000  0.693887 -0.683386 -0.000006  0.000629 0 0 0 0
 482000000  0.689755 -0.696325 -0.000014  0.000175 0 0 0 0
 483000000  0.687491 -0.696068 -0.000191  0.000246 0 0 0 0
 484000000  0.676060 -0.701440  0.000012  0.000322 0 0 0 0
 485000000  0.683285 -0.703265 -0.000147  0.000276 0 0 0 0
 486000000  0.673590 -0.705019  0.000033  0.000262 0 0 0 0
 487000000  0.671850 -0.709543  0.000100  0.000327 0 0 0 0
 488000000  0.664058 -0.716690  0.000051  0.000278 0 0 0 0
 489000000  0.668369 -0.714081 -0.000046  0.000202 0 0 0 0
 490000000  0.668083 -0.722953  0.000049  0.000069 0 0 0 0
 491000000  0.661560 -0.707608 -0.000016 -0.000055 0 0 0 0
 492000000  0.666877 -0.721364  0.000083  0.000095 0 0 0 0
 493000000  0.658610 -0.729269 -0.000054  0.000124 0 0 0 0
 494000000  0.674016 -0.722152 -0.000048  0.000096 0 0 0 0
 495000000  0.663904 -0.741284 -0.000215  0.000032 0 0 0 0
 496000000  0.656350 -0.730466 -0.000099  0.000167 0 0 0 0
 497000000  0.663334 -0.749054 -0.000024  0.000217 0 0 0 0
 498000000  0.646402 -0.747857  0.000090 -0.000053 0 0 0 0
 499000000  0.663161 -0.747854 -0.000154  0.000041 0 0 0 0
 500000000  0.640352 -0.759651 -0.000072  0.000089 0 0 0 0
 501000000  0.639499 -0.744209 -0.000105  0.000165 0 0 0 0
 502000000  0.644794 -0.761891 -0.000103  0.000226 0 0 0 0
 503000000  0.630828 -0.754563 -0.000127  0.000042 0 0 0 0
 504000000  0.648703 -0.756482 -0.000137  0.000067 0 0 0 0
 505000000  0.635335 -0.763951 -0.000141  0.000047 0 0 0 0
 506000000  0.638076 -0.751594  0.000037  0.000137 0 0 0 0
 507000000  0.641358 -0.770150 -0.000170  0.000138 0 0 0 0
 508000000  0.630875 -0.772768 -0.000146  0.000237 0 0 0 0
 509000000  0.639549 -0.774337 -0.000152  0.000153 0 0 0 0
 510000000  0.631783 -0.778184 -0.000114  0.000018 0 0 0 0
 511000000  0.623863 -0.779027  0.000042  0.000218 0 0 0 0
 512000000  0.630554 -0.784980 -0.000112  0.000119 0 0 0 0
 513000000  0.620104 -0.791531 -0.000040  0.000169 0 0 0 0
 514000000  0.615898 -0.784996 -0.000095  0.000050 0 0 0 0
 515000000  0.616818 -0.793184 -0.000094  0.000137 0 0 0 0
 516000000  0.611120 -0.791052 -0.000075 -0.000058 0 0 0 0
 517000000  0.614002 -0.791904 -0.000186  0.000310 0 0 0 0
 518000000  0.608735 -0.798676 -0.000047 -0.000140 0 0 0 0
 519000000  0.610388 -0.794474 -0.000232  0.000110 0 0 0 0
 520000000  0.611168 -0.799430 -0.000172  0.000103 0 0 0 0
 521000000  0.609151 -0.804679 -0.000107  0.000043 0 0 0 0
 522000000  0.611312 -0.802336 -0.000145  0.000352 0 0 0 0
 523000000  0.607107 -0.807839 -0.000060  0.000114 0 0 0 0
 524000000  0.604132 -0.809486 -0.000166  0.000181 0 0 0 0
 525000000  0.604061 -0.809330 -0.000230  0.000216 0 0 0 0
 526000000  0.597091 -0.816738 -0.000243  0.000084 0 0 0 0
 527000000  0.590881 -0.817359 -0.000131  0.000205 0 0 0 0
 528000000  0.593017 -0.818869 -0.000235  0.000222 0 0 0 0
 529000000  0.587207 -0.821851 -0.000073  0.000042 0 0 0 0
 530000000  0.586819 -0.819443 -0.000077  0.000277 0 0 0 0
 531000000  0.586203 -0.821453 -0.000253  0.000114 0 0 0 0
 532000000  0.582813 -0.821477 -0.000048  0.000110 0 0 0 0
 533000000  0.582257 -0.825664 -0.000251  0.000111 0 0 0 0
 534000000  0.580290 -0.829097 -0.000164  0.000150 0 0 0 0
 535000000  0.581335 -0.830064 -0.000320 -0.000051 0 0 0 0
 536000000  0.578574 -0.836331 -0.000116 -0.000079 0 0 0 0
 537000000  0.576767 -0.837255 -0.000130  0.000256 0 0 0 0
 538000000  0.574572 -0.835645 -0.000163 -0.000042 0 0 0 0
 539000000  0.570704 -0.841198 -0.000241  0.000032 0 0 0 0
 540000000  0.573593 -0.842354 -0.000224  0.000231 0 0 0 0
 541000000  0.566465 -0.841628 -0.000189  0.000080 0 0 0 0
 542000000  0.557955 -0.846010 -0.000409  0.000014 0 0 0 0
 543000000  0.556339 -0.841753 -0.000101  0.000009 0 0 0 0
 544000000  0.556459 -0.848764 -0.000163  0.000230 0 0 0 0
 545000000  0.551340 -0.848942 -0.000169 -0.000006 0 0 0 0
 546000000  0.549535 -0.849061 -0.000213  0.000171 0 0 0 0
 547000000  0.551479 -0.852974 -0.000532  0.000050 0 0 0 0
 548000000  0.551339 -0.855688 -0.000201  0.000051 0 0 0 0
 549000000  0.549280 -0.854979 -0.000488  0.000246 0 0 0 0
 550000000  0.547549 -0.855299 -0.000204  0.000082 0 0 0 0
 551000000  0.548854 -0.857533 -0.000286  0.000072 0 0 0 0
 552000000  0.543058 -0.857498 -0.000156  0.000123 0 0 0 0
 553000000  0.538971 -0.859084 -0.000131  0.000191 0 0 0 0
 554000000  0.535449 -0.863613 -0.000332  0.000055 0 0 0 0
 555000000  0.532946 -0.866625 -0.000200  0.000170 0 0 0 0
 556000000  0.530099 -0.865641 -0.000124  0.000100 0 0 0 0
 557000000  0.527031 -0.866619 -0.000283 -0.000014 0 0 0 0
 558000000  0.528914 -0.872628 -0.000311 -0.000050 0 0 0 0
 559000000  0.523395 -0.871235 -0.000434  0.000100 0 0 0 0
 560000000  0.524055 -0.872121 -0.000213 -0.000068 0 0 0 0
 561000000  0.521039 -0.871504 -0.000180  0.000187 0 0 0 0
 562000000  0.520097 -0.870233 -0.000559  0.000187 0 0 0 0
 563000000  0.514234 -0.867890 -0.000165  0.000024 0 0 0 0
 564000000  0.513548 -0.869417 -0.000726  0.000090 0 0 0 0
 565000000  0.510240 -0.874137 -0.000271 -0.000070 0 0 0 0
 566000000  0.512269 -0.873326 -0.000346  0.000045 0 0 0 0
 567000000  0.506311 -0.878266 -0.000388  0.000156 0 0 0 0
 568000000  0.506234 -0.876610 -0.000404 -0.000013 0 0 0 0
 569000000  0.498285 -0.883972 -0.000255 -0.000083 0 0 0 0
 570000000  0.499894 -0.886212 -0.000068  0.000031 0 0 0 0
 571000000  0.499086 -0.878229 -0.000344  0.000123 0 0 0 0
 572000000  0.495100 -0.881700 -0.000174  0.000131 0 0 0 0
 573000000  0.490417 -0.882031 -0.000387  0.000168 0 0 0 0
 574000000  0.489039 -0.880473 -0.000283  0.000103 0 0 0 0
 575000000  0.487892 -0.879176 -0.000336  0.000102 0 0 0 0
 576000000  0.479161 -0.876361 -0.000400  0.000092 0 0 0 0
 577000000  0.482522 -0.881036 -0.000448 -0.000076 0 0 0 0
 578000000  0.479121 -0.883079 -0.000339  0.000143 0 0 0 0
 579000000  0.471465 -0.884177 -0.000434  0.000079 0 0 0 0
 580000000  0.474882 -0.887086 -0.000283  0.000293 0 0 0 0
 581000000  0.469242 -0.888575 -0.000527  0.000064 0 0 0 0
 582000000  0.475319 -0.885989 -0.000143  0.000157 0 0 0 0
 583000000  0.465583 -0.882088 -0.000561  0.000043 0 0 0 0
 584000000  0.458290 -0.878119 -0.000569  0.000100 0 0 0 0
 585000000  0.455555 -0.878115 -0.000323  0.000069 0 0 0 0
 586000000  0.456458 -0.877074 -0.000661  0.000247 0 0 0 0
 587000000  0.450118 -0.871141 -0.000640  0.000069 0 0 0 0
 588000000  0.451275 -0.871129 -0.000660  0.000409 0 0 0 0
 589000000  0.447728 -0.872185 -0.000506  0.000158 0 0 0 0
 590000000  0.451106 -0.866229 -0.001200  0.000355 0 0 0 0
 591000000  0.455386 -0.855347 -0.000309  0.000396 0 0 0 0
 592000000  0.453560 -0.855617 -0.000886  0.000411 0 0 0 0
 593000000  0.468210 -0.847547 -0.000172  0.000960 0 0 0 0
 594000000  0.478807 -0.857750 -0.000832  0.001140 0 0 0 0
 595000000  0.466857 -0.866757 -0.001404 -0.000210 0 0 0 0
 596000000  0.467442 -0.865928 -0.000646  0.000812 0 0 0 0
 597000000  0.463379 -0.870862 -0.000577  0.000556 0 0 0 0
 598000000  0.462020 -0.871437 -0.000754 -0.000039 0 0 0 0
 599000000  0.454809 -0.872943 -0.000391  0.000536 0 0 0 0
 600000000  0.445427 -0.873003 -0.001290 -0.000398 0 0 0 0
