!File created by NanoVNA-F V2
# Hz S RI R 50
 800000000 -0.019804 -0.034465  0.761532  0.783552 0 0 0 0
 801000000 -0.061393 -0.043843  0.439385 -0.717873 0 0 0 0
 802000000 -0.099009 -0.030122  1.680244  0.638530 0 0 0 0
 803000000 -0.122477  0.003479 -0.900710  0.402932 0 0 0 0
 804000000 -0.120553  0.043093 -0.181987  1.884429 0 0 0 0
 805000000 -0.095709  0.072041  0.523919  0.470552 0 0 0 0
 806000000 -0.057231  0.079435  3.255686 -0.601206 0 0 0 0
 807000000 -0.019791  0.059040  0.372927 -1.206705 0 0 0 0
 808000000 -0.005101  0.018941  0.523237  1.365539 0 0 0 0
 809000000 -0.016391 -0.026100  0.611359 -1.226552 0 0 0 0
 810000000 -0.051646 -0.058923 -1.630551 -1.032088 0 0 0 0
 811000000 -0.102262 -0.063474  0.718585  0.065653 0 0 0 0
 812000000 -0.148744 -0.040627  0.528060 -2.191804 0 0 0 0
 813000000 -0.175631  0.004097  0.058154 -0.410623 0 0 0 0
 814000000 -0.173406  0.055524 -0.073642 -0.336470 0 0 0 0
 815000000 -0.142688  0.096526  0.777869  0.177717 0 0 0 0
 816000000 -0.093550  0.113155  0.915391  0.205967 0 0 0 0
 817000000 -0.047629  0.097544  0.860077  0.921581 0 0 0 0
 818000000 -0.022169  0.055725  0.510730  0.362302 0 0 0 0
 819000000 -0.025694  0.008766 -0.023023  0.833719 0 0 0 0
 820000000 -0.057029 -0.023816  0.094988  0.320739 0 0 0 0
 821000000 -0.101920 -0.031926  1.135708  2.229413 0 0 0 0
 822000000 -0.141094 -0.012054  6.813342 -1.259411 0 0 0 0
 823000000 -0.162266  0.024488  0.255235 -0.457934 0 0 0 0
 824000000 -0.158344  0.067711  1.674449 -0.570290 0 0 0 0
 825000000 -0.130962  0.099446 -0.041258  0.738144 0 0 0 0
 826000000 -0.090295  0.108664  0.097245 -0.584673 0 0 0 0
 827000000 -0.055330  0.093624  1.441915 -0.030852 0 0 0 0
 828000000 -0.035462  0.060850  1.082699 -0.053490 0 0 0 0
 829000000 -0.039698  0.025461 -2.402410 -7.617608 0 0 0 0
 830000000 -0.061854  0.000205  6.142970 -3.821850 0 0 0 0
 831000000 -0.084149  0.053766 -0.000027  0.000074 0 0 0 0
 832000000 -0.116981  0.002086  0.815513 -0.802796 0 0 0 0
 833000000 -0.132395  0.021953  0.595667  0.521670 0 0 0 0
 834000000 -0.132256  0.041929  0.810687 -0.643602 0 0 0 0
 835000000 -0.121277  0.055863  0.634132 -0.382135 0 0 0 0
 836000000 -0.107648  0.057274  1.067461  0.276392 0 0 0 0
 837000000 -0.099103  0.048699 -2.060710  0.289956 0 0 0 0
 838000000 -0.099392  0.037223  0.234498  0.137308 0 0 0 0
 839000000 -0.109850  0.028977 -0.934538 -1.786873 0 0 0 0
 840000000 -0.125775  0.026146  0.010897 -1.597147 0 0 0 0
 841000000 -0.139024  0.034093 -0.554109 -0.424462 0 0 0 0
 842000000 -0.149904  0.046745  1.121009 -1.324230 0 0 0 0
 843000000 -0.153682  0.063267  1.136126  0.827090 0 0 0 0
 844000000 -0.150138  0.078579  1.109585 -0.780815 0 0 0 0
 845000000 -0.141356  0.090756  0.029906  0.875040 0 0 0 0
 846000000 -0.130579  0.096495 -0.299660  0.786230 0 0 0 0
 847000000 -0.119422  0.099726  1.485196  1.932151 0 0 0 0
 848000000 -0.111443  0.098101  1.912144 -0.762924 0 0 0 0
 849000000 -0.105083  0.096043  0.802387 -0.137832 0 0 0 0
 850000000 -0.099135  0.091711  1.207816 -0.026548 0 0 0 0
 851000000 -0.094418  0.088169  0.578737 -1.916557 0 0 0 0
 852000000 -0.093622  0.080389  1.529221  1.296938 0 0 0 0
 853000000 -0.096302  0.073126  0.349788 -0.342284 0 0 0 0
 854000000 -0.102237  0.068381  1.231814 -0.769950 0 0 0 0
 855000000 -0.112838  0.067385  0.748430  0.336882 0 0 0 0
 856000000 -0.121886  0.074330  1.315617  0.879933 0 0 0 0
 857000000 -0.126285  0.085163  1.806117 -7.385735 0 0 0 0
 858000000 -0.123920  0.099342  1.234249  0.244080 0 0 0 0
 859000000 -0.114625  0.109959 -1.281895 -0.823011 0 0 0 0
 860000000 -0.100880  0.114444  1.743731  0.322396 0 0 0 0
 861000000 -0.085703  0.111494  1.649790  0.160631 0 0 0 0
 862000000 -0.077261  0.101694  0.619812  0.572606 0 0 0 0
 863000000 -0.074680  0.090241  1.294595  0.179526 0 0 0 0
 864000000 -0.076851  0.078265  0.869779 -0.903298 0 0 0 0
 865000000 -0.082768  0.071887  0.680475  0.445324 0 0 0 0
 866000000 -0.090499  0.069591  1.381630 -0.522957 0 0 0 0
 867000000 -0.097734  0.070654  1.691335 -1.407515 0 0 0 0
 868000000 -0.101778  0.075252  1.941337 -0.765100 0 0 0 0
 869000000 -0.102917  0.078381 -1.236623  0.290940 0 0 0 0
 870000000 -0.100463  0.081166  2.537430 -0.050171 0 0 0 0
 871000000 -0.099556  0.081900  0.942934  2.520651 0 0 0 0
 872000000 -0.096626  0.078115 -2.020583 -2.294011 0 0 0 0
 873000000 -0.097519  0.073963  1.749953  0.832299 0 0 0 0
 874000000 -0.103153  0.069272  0.965566  0.634081 0 0 0 0
 875000000 -0.109045  0.066222  1.301250  0.614013 0 0 0 0
 876000000 -0.117579  0.068079  0.687144  0.292841 0 0 0 0
 877000000 -0.127347  0.072247  3.677105 -0.966418 0 0 0 0
 878000000 -0.134230  0.081335  0.771861 -0.552675 0 0 0 0
 879000000 -0.139071  0.093385  0.580697  0.196791 0 0 0 0
 880000000 -0.137267  0.107321 -2.111515 -1.202040 0 0 0 0
 881000000 -0.128680  0.120160  1.143289 -3.937757 0 0 0 0
 882000000 -0.112884  0.128792  1.441132  0.552496 0 0 0 0
 883000000 -0.097074  0.127912  0.292694  0.214237 0 0 0 0
 884000000 -0.082976  0.122203  1.537829 -0.253873 0 0 0 0
 885000000 -0.074503  0.106059  0.609801  0.485271 0 0 0 0
 886000000 -0.075819  0.090092  0.924966  0.106886 0 0 0 0
 887000000 -0.085014  0.076137  1.933865  3.626354 0 0 0 0
 888000000 -0.100167  0.068963  0.440193 -1.711764 0 0 0 0
 889000000 -0.116453  0.073514 -6.892370 -5.333766 0 0 0 0
 890000000 -0.128068  0.085438 -0.892547 -2.571925 0 0 0 0
 891000000 -0.129622  0.100548  0.756972  0.412100 0 0 0 0
 892000000 -0.122343  0.114899  1.959530 -0.554342 0 0 0 0
 893000000 -0.106676  0.120262  0.017236 -1.397530 0 0 0 0
 894000000 -0.091320  0.114794  3.453120  2.176735 0 0 0 0
 895000000 -0.083120  0.098563 -0.669821 -2.672860 0 0 0 0
 896000000 -0.085034  0.081369 -1.165102  0.198614 0 0 0 0
 897000000 -0.098902  0.066865 -1.591705 -0.400164 0 0 0 0
 898000000 -0.122582  0.061211  0.743382 -0.155843 0 0 0 0
 899000000 -0.146462  0.070052  0.339809  0.291995 0 0 0 0
 900000000 -0.161055  0.094603  1.823413 -0.087878 0 0 0 0
