!File created by NanoVNA-F V2
# Hz S RI R 50
 800000000 -0.197449  0.547584  1.008480  0.599137 0 0 0 0
 800333333 -0.204949  0.538161  0.449678  0.619252 0 0 0 0
 800666666 -0.208457  0.533190  3.151565 -1.750719 0 0 0 0
 800999999 -0.214574  0.529525  1.486222  0.809137 0 0 0 0
 801333332 -0.221952  0.524821 -0.063588  0.708243 0 0 0 0
 801666665 -0.228522  0.524694  1.416028 -0.092386 0 0 0 0
 801999998 -0.235991  0.526086  1.077611  1.305513 0 0 0 0
 802333331 -0.240688  0.529259  1.228780  1.312907 0 0 0 0
 802666664 -0.247586  0.532551 -0.478621  0.131741 0 0 0 0
 802999997 -0.251634  0.538119  0.829619  0.693446 0 0 0 0
 803333330 -0.257421  0.545144 -0.646597 -0.197913 0 0 0 0
 803666663 -0.258795  0.553581 -1.554678  1.158843 0 0 0 0
 803999996 -0.259088  0.563767 -0.721810  6.108242 0 0 0 0
 804333329 -0.253079  0.570726 -1.384952  0.017691 0 0 0 0
 804666662 -0.250501  0.576500  1.055263 -0.265743 0 0 0 0
 804999995 -0.243696  0.580229  2.221026  0.115602 0 0 0 0
 805333328 -0.237724  0.584089  1.176754 -0.973840 0 0 0 0
 805666661 -0.231233  0.586716  0.258784 -2.069487 0 0 0 0
 805999994 -0.223676  0.585818  4.140167  1.750200 0 0 0 0
 806333327 -0.216133  0.585633 -2.205753  2.224185 0 0 0 0
 806666660 -0.211021  0.582432  0.685791  0.164786 0 0 0 0
 806999993 -0.206410  0.578704  0.090751  0.066952 0 0 0 0
 807333326 -0.201737  0.572585  0.943368  0.304074 0 0 0 0
 807666659 -0.200141  0.565427  0.537399 -0.486612 0 0 0 0
 807999992 -0.199565  0.559068 -1.116079 -0.212599 0 0 0 0
 808333325 -0.198167  0.552337 -0.092990  2.150531 0 0 0 0
 808666658 -0.202631  0.545884 -0.451122  3.930298 0 0 0 0
 808999991 -0.209887  0.539360  1.795558 -1.175401 0 0 0 0
 809333324 -0.215687  0.535252  2.653487 -2.742542 0 0 0 0
 809666657 -0.221962  0.532711 -4.815301 -1.571902 0 0 0 0
 809999990 -0.231268  0.534190  0.164316  0.862239 0 0 0 0
 810333323 -0.241004  0.535722  1.741348 -2.784266 0 0 0 0
 810666656 -0.251710  0.541918  0.910140  0.369173 0 0 0 0
 810999989 -0.258601  0.549081  0.545243  0.588226 0 0 0 0
 811333322 -0.266197  0.560570  0.663919 -1.808043 0 0 0 0
 811666655 -0.270318  0.571021 -2.792081  1.560753 0 0 0 0
 811999988 -0.269769  0.584739  0.893289 -0.027517 0 0 0 0
 812333321 -0.269784  0.597551  1.429113 -1.374771 0 0 0 0
 812666654 -0.262706  0.612691  1.628008 -1.259728 0 0 0 0
 812999987 -0.255398  0.623860  0.459636 -0.649024 0 0 0 0
 813333320 -0.245338  0.632955  0.132900  0.504206 0 0 0 0
 813666653 -0.235988  0.640227  0.065088 -0.172338 0 0 0 0
 813999986 -0.221202  0.646137  0.853109  0.553500 0 0 0 0
 814333319 -0.206100  0.649036  1.131558 -0.666951 0 0 0 0
 814666652 -0.190377  0.649406  1.427022 -0.125499 0 0 0 0
 814999985 -0.176044  0.648987  1.012195  0.470045 0 0 0 0
 815333318 -0.164366  0.644545  0.722535  0.781278 0 0 0 0
 815666651 -0.149462  0.639727  0.606475 -0.286703 0 0 0 0
 815999984 -0.135946  0.632091  1.442259 -0.947796 0 0 0 0
 816333317 -0.124872  0.623478  1.898648  0.157684 0 0 0 0
 816666650 -0.113459  0.611949  0.502636 -0.104357 0 0 0 0
 816999983 -0.103646  0.600872  0.392906 -0.428619 0 0 0 0
 817333316 -0.096822  0.585132 -0.351898  0.161063 0 0 0 0
 817666649 -0.091553  0.571481  0.504898 -0.559986 0 0 0 0
 817999982 -0.087734  0.555148 -0.564782 -0.006176 0 0 0 0
 818333315 -0.086447  0.536726  0.459119  0.359683 0 0 0 0
 818666648 -0.089909  0.519282 -0.158219 -0.342859 0 0 0 0
 818999981 -0.095764  0.501342  1.092063 -0.205411 0 0 0 0
 819333314 -0.103571  0.481774  1.133052  0.576376 0 0 0 0
 819666647 -0.117369  0.465197 -0.168838  0.866966 0 0 0 0
 819999980 -0.133402  0.450325  0.546467 -0.147338 0 0 0 0
 820333313 -0.153470  0.438577 -0.401606  0.278831 0 0 0 0
 820666646 -0.179235  0.429957  0.231580 -0.567263 0 0 0 0
 820999979 -0.202704  0.429103 -0.101830 -0.989048 0 0 0 0
 821333312 -0.228799  0.434728 -4.621630  1.915654 0 0 0 0
 821666645 -0.253195  0.443706 -2.097135  0.861228 0 0 0 0
 821999978 -0.271246  0.462442 -7.745240 -3.764727 0 0 0 0
 822333311 -0.288519  0.482753 -0.630057  1.351706 0 0 0 0
 822666644 -0.301000  0.504045  0.634418 -1.075617 0 0 0 0
 822999977 -0.305090  0.528911  1.074616  0.094406 0 0 0 0
 823333310 -0.305533  0.555454 -1.011669 -0.924233 0 0 0 0
 823666643 -0.298365  0.575927 -1.472503  0.478508 0 0 0 0
 823999976 -0.284135  0.597067  4.185379 -1.170773 0 0 0 0
 824333309 -0.271738  0.612790  5.806206  5.967152 0 0 0 0
 824666642  0.453012  0.241992 -0.000014  0.000009 0 0 0 0
 824999975 -0.240817  0.628528  1.643197  0.064638 0 0 0 0
 825333308 -0.221959  0.634925  0.029695  0.018132 0 0 0 0
 825666641 -0.202769  0.635482 -0.608211 -1.679284 0 0 0 0
 825999974 -0.184657  0.632912  0.731340 -0.369283 0 0 0 0
 826333307 -0.169659  0.628007  4.284669 -0.710669 0 0 0 0
 826666640 -0.154311  0.619410  3.832091  3.591908 0 0 0 0
 826999973 -0.141324  0.611888  1.692710  0.468433 0 0 0 0
 827333306 -0.129681  0.599375  4.539292  0.908957 0 0 0 0
 827666639 -0.119320  0.585234  1.474446  4.152649 0 0 0 0
 827999972 -0.110307  0.569921 -0.211540  0.158899 0 0 0 0
 828333305 -0.104702  0.552457 -8.219723 -0.852520 0 0 0 0
 828666638 -0.102675  0.534228 -0.893990 -20.654518 0 0 0 0
 828999971 -0.104431  0.514790  0.390292 -4.614948 0 0 0 0
 829333304 -0.106693  0.495220  1.809469 -2.291057 0 0 0 0
 829666637 -0.114156  0.476967  7.969727  3.390717 0 0 0 0
 829999970 -0.127667  0.457565  13.420456 -4.549252 0 0 0 0
 830333303 -0.141099  0.441311 -8.104113  4.436430 0 0 0 0
 830666636 -0.162768  0.428923  1.359319  0.779303 0 0 0 0
 830999969 -0.184402  0.417789 -1.835655  0.535518 0 0 0 0
 831333302 -0.210152  0.412989  0.980688 -0.761432 0 0 0 0
 831666635 -0.237299  0.412915  1.281125  0.604157 0 0 0 0
 831999968 -0.265369  0.418630  1.341787 -1.065894 0 0 0 0
 832333301 -0.291638  0.432201  2.066761 -2.415797 0 0 0 0
 832666634 -0.313436  0.451583  2.353316  1.697802 0 0 0 0
 832999967 -0.330198  0.473633  1.648689 -0.522613 0 0 0 0
 833333300 -0.342464  0.498701  1.886030 -1.113410 0 0 0 0
 833666633 -0.348129  0.526544  1.586663 -3.079993 0 0 0 0
 833999966 -0.345812  0.552238  0.925431  1.579177 0 0 0 0
 834333299 -0.344543  0.578375  2.378803 -0.024309 0 0 0 0
 834666632 -0.332411  0.603120  1.040162 -0.729980 0 0 0 0
 834999965 -0.322381  0.622070  0.755193  0.829721 0 0 0 0
 835333298 -0.305851  0.638367  1.937843 -0.858849 0 0 0 0
 835666631 -0.286592  0.651629  1.606492  0.224760 0 0 0 0
 835999964 -0.270458  0.660631  1.462531  1.353670 0 0 0 0
 836333297 -0.251619  0.667267  2.794769 -2.248927 0 0 0 0
 836666630 -0.235347  0.671775 -8.489104  5.357549 0 0 0 0
 836999963 -0.214739  0.674655  0.303214  1.031938 0 0 0 0
 837333296 -0.199419  0.671071  0.495020 -1.240959 0 0 0 0
 837666629 -0.182766  0.667551  0.680002 -0.329853 0 0 0 0
 837999962 -0.166401  0.663722  0.040840 -2.071703 0 0 0 0
 838333295 -0.152220  0.656696  0.995328 -0.189701 0 0 0 0
 838666628 -0.139891  0.647943 -2.963831 -2.794326 0 0 0 0
 838999961 -0.129109  0.639441 -2.432003  0.162932 0 0 0 0
 839333294 -0.118422  0.628649 -1.579448 -2.760058 0 0 0 0
 839666627 -0.110633  0.616781  3.084752 -3.081103 0 0 0 0
 839999960 -0.102957  0.604823  3.986315 -2.253058 0 0 0 0
 840333293 -0.096668  0.589161 -0.755883 -4.947029 0 0 0 0
 840666626 -0.094740  0.573243  2.982599 -3.096843 0 0 0 0
 840999959 -0.091069  0.557955  1.750624  2.265065 0 0 0 0
 841333292 -0.094433  0.542444  0.348783  0.629025 0 0 0 0
 841666625 -0.098001  0.527392  0.386903 -2.132637 0 0 0 0
 841999958 -0.107324  0.512388  0.286027 -3.652281 0 0 0 0
 842333291 -0.115289  0.497917  0.361147  0.711650 0 0 0 0
 842666624 -0.124664  0.486512 -1.031121  1.862505 0 0 0 0
 842999957 -0.138947  0.476754  0.906398 -0.431539 0 0 0 0
 843333290 -0.154520  0.468781  0.860349  0.295909 0 0 0 0
 843666623 -0.172388  0.463991  0.523580  0.228179 0 0 0 0
 843999956 -0.190917  0.462885  0.773748 -0.623087 0 0 0 0
 844333289 -0.210193  0.466160  1.217759  0.473136 0 0 0 0
 844666622 -0.224162  0.474181  0.662356 -2.670242 0 0 0 0
 844999955 -0.240532  0.485111  0.979887 -0.474999 0 0 0 0
 845333288 -0.254266  0.498811  0.496788  1.695346 0 0 0 0
 845666621 -0.264677  0.514436  1.284768  0.993846 0 0 0 0
 845999954 -0.269112  0.533159  0.273403  0.360584 0 0 0 0
 846333287 -0.270344  0.552317 -1.135415 -0.270711 0 0 0 0
 846666620 -0.269348  0.570796 -1.464465  0.451830 0 0 0 0
 846999953 -0.263307  0.586741  0.172596  0.302711 0 0 0 0
 847333286 -0.253772  0.602361  0.231606 -1.532857 0 0 0 0
 847666619 -0.241516  0.614766  2.326599  0.358160 0 0 0 0
 847999952 -0.228883  0.624656  1.382957 -1.452478 0 0 0 0
 848333285 -0.213633  0.631290  1.681886 -3.801706 0 0 0 0
 848666618 -0.199222  0.636506 -1.046355 -2.238664 0 0 0 0
 848999951 -0.184628  0.639381 -0.096596 -2.184790 0 0 0 0
 849333284 -0.167261  0.639231 -0.176232 -1.842669 0 0 0 0
 849666617 -0.153636  0.636522  0.883862 -0.770865 0 0 0 0
 849999950 -0.138155  0.632543  0.639479 -0.124018 0 0 0 0
 850333283 -0.123139  0.626078  0.219185 -0.035028 0 0 0 0
 850666616 -0.111138  0.617986 -0.336845 -3.549139 0 0 0 0
 850999949 -0.099884  0.609103  0.330065 -2.009246 0 0 0 0
 851333282 -0.090983  0.597159 -71.919487  19.499630 0 0 0 0
 851666615 -0.082039  0.584344  0.827198  1.864096 0 0 0 0
 851999948 -0.073632  0.569898 -0.791730  2.199073 0 0 0 0
 852333281 -0.069589  0.554097  1.372615  0.226288 0 0 0 0
 852666614 -0.069292  0.537039  1.021948  0.868873 0 0 0 0
 852999947 -0.066075  0.519879  0.305796  0.265899 0 0 0 0
 853333280 -0.068163  0.500790  1.132074 -2.560085 0 0 0 0
 853666613 -0.071998  0.483790  0.623913  0.054224 0 0 0 0
 853999946 -0.078420  0.465848  0.097120 -0.420170 0 0 0 0
 854333279 -0.090663  0.446866 -1.012403 -0.764201 0 0 0 0
 854666612 -0.107747  0.430700 -1.700485 -1.901099 0 0 0 0
 854999945 -0.126229  0.416566  1.250023  1.192170 0 0 0 0
 855333278 -0.146737  0.404121 -0.847388 -6.892767 0 0 0 0
 855666611 -0.171503  0.396591  2.252962 -2.594285 0 0 0 0
 855999944 -0.197388  0.392152  2.204290 -1.473360 0 0 0 0
 856333277 -0.224680  0.394470  0.928699 -2.296061 0 0 0 0
 856666610 -0.249397  0.402293  7.104531  1.631820 0 0 0 0
 856999943 -0.275859  0.415002  10.111251  0.117346 0 0 0 0
 857333276 -0.299187  0.431809  0.299554 -1.262538 0 0 0 0
 857666609 -0.314254  0.455624  0.439649  0.145020 0 0 0 0
 857999942 -0.326510  0.481830  0.082650  0.108102 0 0 0 0
 858333275 -0.336371  0.508908  0.250756  0.362627 0 0 0 0
 858666608 -0.339086  0.534542  0.179893  0.662400 0 0 0 0
 858999941 -0.336447  0.560768  1.152896  0.131333 0 0 0 0
 859333274 -0.327404  0.586892 -2.879858 -1.417855 0 0 0 0
 859666607 -0.318160  0.606133  2.294805 -2.579273 0 0 0 0
 859999940 -0.303493  0.625243 -1.209363 -0.797297 0 0 0 0
 860333273 -0.288266  0.640351  0.639576 -0.163798 0 0 0 0
 860666606 -0.267996  0.652628  1.135712 -3.525042 0 0 0 0
 860999939 -0.247715  0.664238  2.301005 -0.661551 0 0 0 0
 861333272 -0.229138  0.668633  1.452286  0.020587 0 0 0 0
 861666605 -0.210627  0.670506 -0.526680 -0.127100 0 0 0 0
 861999938 -0.195528  0.671329  1.028531  0.616165 0 0 0 0
 862333271 -0.178465  0.668525  0.824468  0.331732 0 0 0 0
 862666604 -0.157548  0.664071  1.218072 -1.035255 0 0 0 0
 862999937 -0.142004  0.658558  0.543323  1.076434 0 0 0 0
 863333270 -0.127850  0.652523 -0.056071  1.241992 0 0 0 0
 863666603 -0.116035  0.641616 -0.068902 -0.346474 0 0 0 0
 863999936 -0.103772  0.628490  0.166760 -0.577843 0 0 0 0
 864333269 -0.093309  0.616774 -0.436601 -0.758967 0 0 0 0
 864666602 -0.083670  0.602208 -0.872116  2.288118 0 0 0 0
 864999935 -0.077760  0.586543 -1.827159  1.978062 0 0 0 0
 865333268 -0.071195  0.570114 -0.967635 -1.228285 0 0 0 0
 865666601 -0.070012  0.552743  0.712859 -1.583676 0 0 0 0
 865999934 -0.070452  0.535485 -0.264416 -0.861183 0 0 0 0
 866333267 -0.074738  0.517318  0.184525 -2.423608 0 0 0 0
 866666600 -0.080533  0.498431  0.944304 -0.361528 0 0 0 0
 866999933 -0.089118  0.482375 -0.880000 -3.287340 0 0 0 0
 867333266 -0.102516  0.466686  1.005357  0.169368 0 0 0 0
 867666599 -0.118004  0.451729  1.528936  0.084627 0 0 0 0
 867999932 -0.134638  0.440896 -0.651454  0.520867 0 0 0 0
 868333265 -0.157119  0.431737  0.636426 -0.411905 0 0 0 0
 868666598 -0.180857  0.427287  0.244958 -0.260241 0 0 0 0
 868999931 -0.205214  0.428078  0.690193  0.793086 0 0 0 0
 869333264 -0.232820  0.433451 -2.390951  3.934205 0 0 0 0
 869666597 -0.255287  0.445306  3.044075  4.950991 0 0 0 0
 869999930 -0.279339  0.461150  2.000428  0.646890 0 0 0 0
 870333263 -0.295408  0.481492  0.304448  3.024823 0 0 0 0
 870666596 -0.302828  0.508297 -2.754037  0.923577 0 0 0 0
 870999929 -0.312862  0.531633  0.642478  4.980059 0 0 0 0
 871333262 -0.314947  0.557008 -42.133976 -70.912735 0 0 0 0
 871666595 -0.308568  0.583995 -0.353531 -2.573704 0 0 0 0
 871999928 -0.300472  0.605591 -0.143126 -0.059237 0 0 0 0
 872333261 -0.289756  0.627459  1.140263  1.998998 0 0 0 0
 872666594 -0.274845  0.643665  0.320875  1.135837 0 0 0 0
 872999927 -0.260311  0.659487  1.924485  0.375371 0 0 0 0
 873333260 -0.243306  0.670145  0.893262 -0.888355 0 0 0 0
 873666593 -0.225359  0.677298  0.861829  0.660808 0 0 0 0
 873999926 -0.207500  0.682898  1.184228  0.316102 0 0 0 0
 874333259 -0.183989  0.685034 -1.340663 -1.413636 0 0 0 0
 874666592 -0.166266  0.683594 -1.480999  1.061254 0 0 0 0
 874999925 -0.149272  0.680405  0.748651  1.867718 0 0 0 0
 875333258 -0.131004  0.676591 -0.943504  1.268793 0 0 0 0
 875666591 -0.114735  0.670312 -0.381883 -2.210829 0 0 0 0
 875999924 -0.099794  0.660987  0.185181 -0.832829 0 0 0 0
 876333257 -0.086702  0.653708  0.729542 -1.742772 0 0 0 0
 876666590 -0.074645  0.640859  3.776758 -3.227482 0 0 0 0
 876999923 -0.065286  0.628241  2.088349  3.456507 0 0 0 0
 877333256 -0.054433  0.614903 -0.303583  1.258016 0 0 0 0
 877666589 -0.046757  0.598409 -0.058235  0.102193 0 0 0 0
 877999922 -0.039629  0.582647 -1.067864 -1.581218 0 0 0 0
 878333255 -0.034573  0.562287 -4.882003  1.804531 0 0 0 0
 878666588 -0.035647  0.545846  1.618927 -0.735224 0 0 0 0
 878999921 -0.036627  0.526703  2.196778  0.836119 0 0 0 0
 879333254 -0.040441  0.507052  2.286252 -1.249831 0 0 0 0
 879666587 -0.047092  0.489401 -7.627209 -0.803971 0 0 0 0
 879999920 -0.058094  0.470657 -0.481527 -1.533350 0 0 0 0
 880333253 -0.070470  0.453443 -1.576559  0.504031 0 0 0 0
 880666586 -0.084808  0.437997 -1.369378 -0.679408 0 0 0 0
 880999919 -0.106014  0.424686 -0.320277 -8.182965 0 0 0 0
 881333252 -0.126817  0.415225 -1.054472 -1.025327 0 0 0 0
 881666585 -0.151641  0.410946  0.214079 -1.388767 0 0 0 0
 881999918 -0.176926  0.409456  0.334912 -0.690568 0 0 0 0
 882333251 -0.201195  0.415710 -0.028142 -0.919602 0 0 0 0
 882666584 -0.225330  0.425700  0.715134  0.793730 0 0 0 0
 882999917 -0.246770  0.438985 -0.269940  1.224817 0 0 0 0
 883333250 -0.265346  0.459670 -0.679280  1.010111 0 0 0 0
 883666583 -0.280134  0.482213  1.076703 -1.232982 0 0 0 0
 883999916 -0.287494  0.505390  0.473630 -0.179781 0 0 0 0
 884333249 -0.291366  0.528379 -0.210092 -0.126104 0 0 0 0
 884666582 -0.287649  0.551517 -1.130687  1.236708 0 0 0 0
 884999915 -0.281473  0.571057  0.129316 -0.535503 0 0 0 0
 885333248 -0.271405  0.592629 -0.204681  3.824912 0 0 0 0
 885666581 -0.262662  0.608062  0.743769  1.357798 0 0 0 0
 885999914 -0.248153  0.619114  3.093648  0.551425 0 0 0 0
 886333247 -0.235985  0.630757  2.669098 -0.190442 0 0 0 0
 886666580 -0.216764  0.640805  1.210847 -0.953156 0 0 0 0
 886999913 -0.201970  0.645634  2.318561  4.984241 0 0 0 0
 887333246 -0.185559  0.646983 -1.545640  1.807632 0 0 0 0
 887666579 -0.167855  0.644509  1.746595  1.325463 0 0 0 0
 887999912 -0.155987  0.641753  0.305040  0.199374 0 0 0 0
 888333245 -0.141343  0.636723 -0.331564  0.832088 0 0 0 0
 888666578 -0.127280  0.630577 -0.945003  2.562345 0 0 0 0
 888999911 -0.117741  0.621830 -25.223211  28.018988 0 0 0 0
 889333244 -0.108312  0.613088 -2.973992 -6.988955 0 0 0 0
 889666577 -0.099509  0.602458  1.889971  1.028528 0 0 0 0
 889999910 -0.094969  0.591450  0.600944  0.011083 0 0 0 0
 890333243 -0.091549  0.578939 -4.662891 -3.418026 0 0 0 0
 890666576 -0.089012  0.565687  0.938370 -0.427217 0 0 0 0
 890999909 -0.089966  0.552904  1.570190  0.879348 0 0 0 0
 891333242 -0.091411  0.542228  1.038871  2.520674 0 0 0 0
 891666575 -0.096342  0.531405  0.109639  1.418963 0 0 0 0
 891999908 -0.103562  0.520842  0.094748  1.206437 0 0 0 0
 892333241 -0.113346  0.511846 -0.265303  0.176970 0 0 0 0
 892666574 -0.121834  0.504360 -0.178952  0.370883 0 0 0 0
 892999907 -0.131422  0.498874  0.269012 -0.315512 0 0 0 0
 893333240 -0.142947  0.495713  1.159707  1.052579 0 0 0 0
 893666573 -0.157254  0.493422 -0.162023  0.669957 0 0 0 0
 893999906 -0.165476  0.496059  0.153551 -1.481711 0 0 0 0
 894333239  0.356156  0.117916 -0.000023  0.000036 0 0 0 0
 894666572 -0.187771  0.504776  0.107935 -0.796734 0 0 0 0
 894999905 -0.194433  0.511209 -2.879870 -1.437055 0 0 0 0
 895333238 -0.201300  0.517521 -2.043822 -0.888594 0 0 0 0
 895666571 -0.204561  0.527166 -0.552653 -0.209008 0 0 0 0
 895999904 -0.208578  0.534624 -0.031255 -0.658727 0 0 0 0
 896333237 -0.209348  0.544308 -1.156869  0.788650 0 0 0 0
 896666570 -0.208653  0.552701  4.556445  3.159368 0 0 0 0
 896999903 -0.208378  0.562754  1.865041 -1.507327 0 0 0 0
 897333236 -0.203362  0.568277  0.179018  1.322638 0 0 0 0
 897666569 -0.201075  0.573969  1.441639 -0.108472 0 0 0 0
 897999902 -0.197423  0.579488  0.270215  0.081664 0 0 0 0
 898333235 -0.192860  0.582872  0.128152  0.105446 0 0 0 0
 898666568 -0.187407  0.585354 -0.593444 -0.244578 0 0 0 0
 898999901 -0.184922  0.585276 -0.248950  0.239596 0 0 0 0
 899333234 -0.176357  0.590027  2.072041  0.971363 0 0 0 0
 899666567 -0.172951  0.593820 -2.881746 -3.699100 0 0 0 0
 899999900 -0.170506  0.593848  3.812265  1.369165 0 0 0 0
