!File created by NanoVNA-F V2
# Hz S RI R 50
     10000 -0.174675 -0.289054  3.551036 -1.819235 0 0 0 0
  14676633  0.006889 -0.077631 -0.558801  0.697109 0 0 0 0
  29343266  0.345434  0.426201  0.718289 -0.501796 0 0 0 0
  44009899  0.569566  0.428223  0.479225 -0.581158 0 0 0 0
  58676532  0.740211  0.352216  0.267072 -0.553545 0 0 0 0
  73343165  0.856114  0.243080  0.118205 -0.465353 0 0 0 0
  88009798  0.927223  0.120970  0.030587 -0.357740 0 0 0 0
 102676431  0.963174 -0.001323 -0.010885 -0.254842 0 0 0 0
 117343064  0.974606 -0.117503 -0.023033 -0.163664 0 0 0 0
 132009697  0.964428 -0.231300 -0.016901 -0.083473 0 0 0 0
 146676330  0.937393 -0.337540  0.000484 -0.012994 0 0 0 0
 161342963  0.892918 -0.436453  0.030265  0.050058 0 0 0 0
 176009596  0.831963 -0.528055  0.068775  0.111134 0 0 0 0
 190676229  0.755033 -0.609595  0.124398  0.169671 0 0 0 0
 205342862  0.661517 -0.674845  0.199674  0.220608 0 0 0 0
 220009495  0.553255 -0.723847  0.299916  0.254872 0 0 0 0
 234676128  0.432786 -0.744798  0.419493  0.259600 0 0 0 0
 249342761  0.310513 -0.739654  0.547713  0.227862 0 0 0 0
 264009394  0.185355 -0.704721  0.676908  0.147759 0 0 0 0
 278676027  0.074817 -0.628776  0.777624  0.021209 0 0 0 0
 293342660 -0.007895 -0.519968  0.836794 -0.135244 0 0 0 0
 308009293 -0.048861 -0.387194  0.847578 -0.303451 0 0 0 0
 322675926 -0.038848 -0.252242  0.810800 -0.467133 0 0 0 0
 337342559  0.018938 -0.137168  0.737148 -0.613160 0 0 0 0
 352009192  0.107974 -0.053589  0.632210 -0.738259 0 0 0 0
 366675825  0.218234 -0.010209  0.495158 -0.831105 0 0 0 0
 381342458  0.326918 -0.007478  0.345317 -0.884359 0 0 0 0
 396009091  0.424854 -0.036667  0.193049 -0.895832 0 0 0 0
 410675724  0.502779 -0.089919  0.069924 -0.869868 0 0 0 0
 425342357  0.563420 -0.156345 -0.059999 -0.812755 0 0 0 0
 440008990  0.601410 -0.235567 -0.146316 -0.741239 0 0 0 0
 454675623  0.622832 -0.314371 -0.208932 -0.667880 0 0 0 0
 469342256  0.626487 -0.392582 -0.243237 -0.596092 0 0 0 0
 484008889  0.615620 -0.466447 -0.264160 -0.535021 0 0 0 0
 498675522  0.598362 -0.537237 -0.278861 -0.480468 0 0 0 0
 513342155  0.565897 -0.599988 -0.284842 -0.436937 0 0 0 0
 528008788  0.533518 -0.653141 -0.288969 -0.398500 0 0 0 0
 542675421  0.493088 -0.703121 -0.292085 -0.364308 0 0 0 0
 557342054  0.449540 -0.752407 -0.293935 -0.333050 0 0 0 0
 572008687  0.401258 -0.789151 -0.295758 -0.307081 0 0 0 0
 586675320  0.350560 -0.823229 -0.297833 -0.280967 0 0 0 0
 601341953  0.300891 -0.851157 -0.299951 -0.255476 0 0 0 0
 616008586  0.244232 -0.876217 -0.300978 -0.230597 0 0 0 0
 630675219  0.190378 -0.896597 -0.300803 -0.205914 0 0 0 0
 645341852  0.135157 -0.912930 -0.297980 -0.179877 0 0 0 0
 660008485  0.069889 -0.926998 -0.290139 -0.152004 0 0 0 0
 674675118  0.020662 -0.929884 -0.278820 -0.129151 0 0 0 0
 689341751 -0.044938 -0.928537 -0.257157 -0.104927 0 0 0 0
 704008384 -0.120421 -0.914246 -0.218363 -0.099702 0 0 0 0
 718675017 -0.175029 -0.856519 -0.180786 -0.143217 0 0 0 0
 733341650 -0.147851 -0.805151 -0.253955 -0.222188 0 0 0 0
 748008283 -0.136969 -0.856537 -0.342112 -0.145227 0 0 0 0
 762674916 -0.192832 -0.892479 -0.332013 -0.068972 0 0 0 0
 777341549 -0.250499 -0.890368 -0.305117 -0.030353 0 0 0 0
 792008182 -0.303073 -0.890494 -0.281694 -0.007104 0 0 0 0
 806674815 -0.356841 -0.868714 -0.257285  0.009152 0 0 0 0
 821341448 -0.410397 -0.856476 -0.237978  0.019182 0 0 0 0
 836008081 -0.453192 -0.832851 -0.219867  0.025887 0 0 0 0
 850674714 -0.495657 -0.816561 -0.205171  0.028913 0 0 0 0
 865341347 -0.539585 -0.794695 -0.192617  0.031759 0 0 0 0
 880007980 -0.580976 -0.766048 -0.181853  0.033391 0 0 0 0
 894674613 -0.616453 -0.737228 -0.172287  0.033762 0 0 0 0
 909341246 -0.658016 -0.710424 -0.165225  0.035128 0 0 0 0
 924007879 -0.685348 -0.673556 -0.157538  0.035038 0 0 0 0
 938674512 -0.722110 -0.639598 -0.152857  0.036654 0 0 0 0
 953341145 -0.749903 -0.607941 -0.148490  0.039501 0 0 0 0
 968007778 -0.779686 -0.576844 -0.145344  0.040456 0 0 0 0
 982674411 -0.805880 -0.538054 -0.141948  0.044216 0 0 0 0
 997341044 -0.832024 -0.502130 -0.138170  0.048894 0 0 0 0
1012007677 -0.852405 -0.465465 -0.133368  0.054775 0 0 0 0
1026674310 -0.875475 -0.428479 -0.128890  0.059531 0 0 0 0
1041340943 -0.890668 -0.390429 -0.122913  0.065200 0 0 0 0
1056007576 -0.909002 -0.350798 -0.115643  0.070589 0 0 0 0
1070674209 -0.921675 -0.311662 -0.106259  0.074964 0 0 0 0
1085340842 -0.935331 -0.272691 -0.097141  0.078341 0 0 0 0
1100007475 -0.945039 -0.235780 -0.086235  0.079706 0 0 0 0
1114674108 -0.956056 -0.197208 -0.074465  0.080890 0 0 0 0
1129340741 -0.964521 -0.155983 -0.065242  0.079065 0 0 0 0
1144007374 -0.968002 -0.117963 -0.058056  0.075094 0 0 0 0
1158674007 -0.970401 -0.081441 -0.050961  0.071016 0 0 0 0
1173340640 -0.976871 -0.046100 -0.046038  0.066986 0 0 0 0
1188007273 -0.976826 -0.016388 -0.041080  0.063237 0 0 0 0
1202673906 -0.979160  0.033679 -0.037407  0.059072 0 0 0 0
1217340539 -0.970976  0.076817 -0.034644  0.055023 0 0 0 0
1232007172 -0.973863  0.100828 -0.033036  0.052051 0 0 0 0
1246673805 -0.977039  0.139258 -0.030554  0.049712 0 0 0 0
1261340438 -0.960472  0.176786 -0.028671  0.046633 0 0 0 0
1276007071 -0.963910  0.212937 -0.027286  0.044367 0 0 0 0
1290673704 -0.952333  0.244179 -0.025532  0.042236 0 0 0 0
1305340337 -0.940989  0.272590 -0.025804  0.039162 0 0 0 0
1320006970 -0.928789  0.307326 -0.025119  0.037757 0 0 0 0
1334673603 -0.917346  0.341646 -0.025465  0.037700 0 0 0 0
1349340236 -0.912136  0.369602 -0.025384  0.040097 0 0 0 0
1364006869 -0.897187  0.395914 -0.021163  0.041335 0 0 0 0
1378673502 -0.885244  0.428237 -0.016149  0.040891 0 0 0 0
1393340135 -0.875594  0.461030 -0.010912  0.038959 0 0 0 0
1408006768 -0.859676  0.492733 -0.008295  0.035315 0 0 0 0
1422673401 -0.834501  0.522208 -0.006132  0.031600 0 0 0 0
1437340034 -0.820634  0.548677 -0.004229  0.028208 0 0 0 0
1452006667 -0.809307  0.571326 -0.002795  0.024743 0 0 0 0
1466673300 -0.786472  0.596816 -0.001966  0.021417 0 0 0 0
1481339933 -0.764772  0.619512 -0.001439  0.018416 0 0 0 0
1496006566 -0.750554  0.648138 -0.001237  0.015411 0 0 0 0
1510673199 -0.730282  0.668798 -0.000829  0.012836 0 0 0 0
1525339832  0.065141 -0.798757  0.016546  0.006727 0 0 0 0
1540006465 -0.689948  0.714186 -0.000908  0.007505 0 0 0 0
1554673098 -0.669128  0.734432 -0.000981  0.005026 0 0 0 0
1569339731 -0.642834  0.756437 -0.001227  0.002490 0 0 0 0
1584006364 -0.623643  0.767596 -0.001637 -0.000066 0 0 0 0
1598672997 -0.601660  0.791209 -0.002019 -0.002591 0 0 0 0
1613339630 -0.563964  0.808423 -0.002972 -0.005131 0 0 0 0
1628006263 -0.549852  0.824452 -0.003770 -0.007786 0 0 0 0
1642672896 -0.528182  0.847057 -0.004927 -0.010111 0 0 0 0
1657339529 -0.498553  0.862816 -0.006296 -0.012538 0 0 0 0
1672006162 -0.480275  0.879481 -0.008066 -0.014656 0 0 0 0
1686672795 -0.445490  0.894310 -0.009592 -0.016603 0 0 0 0
1701339428 -0.421639  0.897813 -0.011546 -0.018398 0 0 0 0
1716006061 -0.388207  0.911148 -0.013224 -0.019571 0 0 0 0
1730672694 -0.357266  0.935721 -0.015234 -0.021554 0 0 0 0
1745339327 -0.324926  0.932591 -0.016924 -0.023129 0 0 0 0
1760005960 -0.293507  0.946604 -0.018898 -0.024631 0 0 0 0
1774672593 -0.278203  0.955831 -0.021114 -0.026273 0 0 0 0
1789339226 -0.239950  0.963136 -0.022949 -0.027219 0 0 0 0
1804005859 -0.205276  0.974535 -0.025732 -0.028072 0 0 0 0
1818672492 -0.191311  0.968601 -0.027501 -0.030061 0 0 0 0
1833339125 -0.149309  0.983076 -0.030321 -0.031313 0 0 0 0
1848005758 -0.112401  0.976791 -0.032617 -0.033185 0 0 0 0
1862672391 -0.089565  0.985241 -0.035624 -0.035175 0 0 0 0
1877339024 -0.056227  0.995178 -0.039835 -0.036034 0 0 0 0
1892005657 -0.032601  0.995439 -0.043897 -0.037555 0 0 0 0
1906672290  0.001355  0.986936 -0.047861 -0.038089 0 0 0 0
1921338923  0.035120  0.987654 -0.052859 -0.038688 0 0 0 0
1936005556  0.065585  0.983776 -0.058326 -0.037373 0 0 0 0
1950672189  0.085813  0.978238 -0.063022 -0.036528 0 0 0 0
1965338822  0.123035  0.973835 -0.067847 -0.034915 0 0 0 0
1980005455  0.155798  0.968672 -0.071756 -0.033052 0 0 0 0
1994672088  0.175415  0.958703 -0.076372 -0.029399 0 0 0 0
2009338721  0.216889  0.963612 -0.080392 -0.028343 0 0 0 0
2024005354  0.253094  0.938905 -0.084319 -0.025861 0 0 0 0
2038671987  0.281107  0.945499 -0.088099 -0.020472 0 0 0 0
2053338620  0.319371  0.927498 -0.091348 -0.016951 0 0 0 0
2068005253  0.344876  0.923013 -0.093319 -0.015231 0 0 0 0
2082671886  0.386114  0.899183 -0.095204 -0.010191 0 0 0 0
2097338519  0.427119  0.885966 -0.096975 -0.006247 0 0 0 0
2112005152  0.457453  0.865856 -0.098414 -0.004991 0 0 0 0
2126671785  0.496880  0.840489 -0.100739 -0.002433 0 0 0 0
2141338418  0.531254  0.820948 -0.102175  0.000864 0 0 0 0
2156005051  0.565870  0.791184 -0.104250  0.001808 0 0 0 0
2170671684  0.596276  0.765845 -0.108055  0.004232 0 0 0 0
2185338317  0.634453  0.738459 -0.110486  0.003646 0 0 0 0
2200004950  0.661583  0.714414 -0.115624  0.004381 0 0 0 0
2214671583  0.693576  0.673382 -0.119448  0.005860 0 0 0 0
2229338216  0.718954  0.630100 -0.124269  0.007822 0 0 0 0
2244004849  0.744970  0.592897 -0.129861  0.011236 0 0 0 0
2258671482  0.763117  0.560697 -0.135502  0.015623 0 0 0 0
2273338115  0.797716  0.517749 -0.144466  0.018714 0 0 0 0
2288004748  0.812042  0.486648 -0.153299  0.025305 0 0 0 0
2302671381  0.852446  0.416642 -0.162691  0.027213 0 0 0 0
2317338014  0.850543  0.388726 -0.173777  0.038475 0 0 0 0
2332004647  0.871086  0.305356 -0.187046  0.049419 0 0 0 0
2346671280  0.873938  0.292707 -0.199644  0.062411 0 0 0 0
2361337913  0.876735  0.220935 -0.210758  0.081334 0 0 0 0
2376004546  0.899519  0.168762 -0.222386  0.108858 0 0 0 0
2390671179  0.865049  0.101059 -0.218789  0.134999 0 0 0 0
2405337812  0.881317  0.071939 -0.217894  0.165339 0 0 0 0
2420004445  0.882125  0.010479 -0.205213  0.194328 0 0 0 0
2434671078  0.883643 -0.058482 -0.184635  0.217393 0 0 0 0
2449337711  0.860092 -0.092995 -0.169715  0.231504 0 0 0 0
2464004344  0.849399 -0.173937 -0.149258  0.254219 0 0 0 0
2478670977  0.836812 -0.233240 -0.125581  0.256642 0 0 0 0
2493337610  0.803937 -0.289080 -0.107561  0.260434 0 0 0 0
2508004243  0.758208 -0.343913 -0.087102  0.264961 0 0 0 0
2522670876  0.723828 -0.408053 -0.080145  0.261697 0 0 0 0
2537337509  0.668599 -0.456784 -0.073473  0.261234 0 0 0 0
2552004142  0.625909 -0.515248 -0.063275  0.264229 0 0 0 0
2566670775  0.562690 -0.567631 -0.063243  0.269027 0 0 0 0
2581337408  0.491582 -0.582999 -0.067307  0.273008 0 0 0 0
2596004041  0.410815 -0.612832 -0.063400  0.287887 0 0 0 0
2610670674  0.340462 -0.631924 -0.070194  0.313693 0 0 0 0
2625337307  0.240161 -0.643941 -0.075403  0.332813 0 0 0 0
2640003940  0.164551 -0.659953 -0.068873  0.371281 0 0 0 0
2654670573  0.106774 -0.617668 -0.052298  0.403097 0 0 0 0
2669337206  0.030530 -0.608568 -0.018505  0.454062 0 0 0 0
2684003839 -0.006459 -0.546518  0.018684  0.492189 0 0 0 0
2698670472 -0.057153 -0.482509  0.080711  0.547668 0 0 0 0
2713337105 -0.126420 -0.420054  0.159520  0.581637 0 0 0 0
2728003738 -0.129831 -0.360643  0.253164  0.606210 0 0 0 0
2742670371 -0.130278 -0.299022  0.374451  0.580444 0 0 0 0
2757337004 -0.103108 -0.247321  0.451039  0.530823 0 0 0 0
2772003637 -0.077206 -0.219439  0.539354  0.452529 0 0 0 0
2786670270 -0.047444 -0.189752  0.608554  0.369512 0 0 0 0
2801336903 -0.019198 -0.190976  0.656611  0.292336 0 0 0 0
2816003536 -0.007051 -0.178755  0.676225  0.217483 0 0 0 0
2830670169  0.006908 -0.177007  0.702833  0.103163 0 0 0 0
2845336802  0.035092 -0.188592  0.685079  0.009017 0 0 0 0
2860003435  0.055538 -0.167359  0.666483 -0.062818 0 0 0 0
2874670068  0.095549 -0.163594  0.628916 -0.144836 0 0 0 0
2889336701  0.128767 -0.178636  0.586844 -0.198066 0 0 0 0
2904003334  0.168641 -0.201183  0.536290 -0.243631 0 0 0 0
2918669967  0.200381 -0.238248  0.477668 -0.291610 0 0 0 0
2933336600  0.230493 -0.293710  0.429378 -0.325983 0 0 0 0
2948003233  0.243953 -0.361290  0.378628 -0.335787 0 0 0 0
2962669866  0.231712 -0.428417  0.324443 -0.341943 0 0 0 0
2977336499  0.205025 -0.500853  0.286883 -0.337728 0 0 0 0
2992003132  0.177295 -0.568752  0.247649 -0.331718 0 0 0 0
3006669765  0.145832 -0.622912  0.214205 -0.326861 0 0 0 0
3021336398  0.077943 -0.691498  0.201618 -0.321155 0 0 0 0
3036003031  0.018106 -0.715536  0.188768 -0.310636 0 0 0 0
3050669664 -0.065319 -0.751535  0.166738 -0.314551 0 0 0 0
3065336297 -0.140976 -0.756165  0.151252 -0.306364 0 0 0 0
3080002930 -0.211538 -0.785070  0.134709 -0.311669 0 0 0 0
3094669563 -0.242778 -0.757316  0.126354 -0.307414 0 0 0 0
3109336196 -0.311566 -0.744892  0.112235 -0.314201 0 0 0 0
3124002829 -0.367149 -0.745021  0.096566 -0.320755 0 0 0 0
3138669462 -0.426086 -0.741413  0.091087 -0.325098 0 0 0 0
3153336095 -0.469356 -0.702770  0.064678 -0.333056 0 0 0 0
3168002728 -0.517444 -0.695119  0.045321 -0.340860 0 0 0 0
3182669361 -0.545809 -0.669446  0.027795 -0.341869 0 0 0 0
3197335994 -0.599182 -0.639832 -0.008963 -0.340515 0 0 0 0
3212002627 -0.633214 -0.607629 -0.043838 -0.336136 0 0 0 0
3226669260 -0.664403 -0.582465 -0.072202 -0.324207 0 0 0 0
3241335893 -0.686266 -0.545471 -0.099658 -0.303489 0 0 0 0
3256002526 -0.719609 -0.517306 -0.124085 -0.288146 0 0 0 0
3270669159 -0.741047 -0.497986 -0.134293 -0.260868 0 0 0 0
3285335792 -0.777873 -0.473269 -0.145046 -0.244309 0 0 0 0
3300002425 -0.796573 -0.442083 -0.149446 -0.215446 0 0 0 0
3314669058 -0.830642 -0.416992 -0.158444 -0.195428 0 0 0 0
3329335691 -0.851699 -0.377378 -0.157940 -0.175907 0 0 0 0
3344002324 -0.857342 -0.376191 -0.158245 -0.156993 0 0 0 0
3358668957 -0.885676 -0.340049 -0.153902 -0.142486 0 0 0 0
3373335590 -0.912504 -0.306298 -0.147293 -0.126233 0 0 0 0
3388002223 -0.916867 -0.276781 -0.139355 -0.117245 0 0 0 0
3402668856 -0.947742 -0.241732 -0.133413 -0.112230 0 0 0 0
3417335489 -0.949763 -0.197677 -0.127523 -0.104622 0 0 0 0
3432002122 -0.953259 -0.171353 -0.126942 -0.095730 0 0 0 0
3446668755 -0.985987 -0.130524 -0.123104 -0.094288 0 0 0 0
3461335388 -0.972114 -0.083367 -0.114894 -0.094185 0 0 0 0
3476002021 -0.965331 -0.075222 -0.112159 -0.093054 0 0 0 0
3490668654 -0.969482 -0.037559 -0.114019 -0.090102 0 0 0 0
3505335287 -0.986465 -0.009763 -0.115522 -0.098507 0 0 0 0
3520001920 -0.993113  0.024573 -0.116860 -0.100624 0 0 0 0
3534668553 -0.987512  0.062284 -0.119921 -0.100988 0 0 0 0
3549335186 -0.969396  0.090342 -0.127155 -0.103719 0 0 0 0
3564001819 -0.969183  0.093645 -0.131785 -0.104339 0 0 0 0
3578668452 -0.979540  0.138621 -0.147971 -0.102633 0 0 0 0
3593335085 -0.974220  0.155904 -0.155004 -0.102338 0 0 0 0
3608001718 -0.960380  0.196960 -0.167134 -0.096763 0 0 0 0
3622668351 -0.938508  0.224318 -0.179969 -0.089080 0 0 0 0
3637334984 -0.984945  0.235322 -0.204063 -0.076582 0 0 0 0
3652001617 -0.938750  0.252351 -0.196276 -0.056904 0 0 0 0
3666668250 -0.938673  0.301170 -0.200757 -0.033343 0 0 0 0
3681334883 -0.935089  0.318553 -0.197250 -0.017530 0 0 0 0
3696001516 -0.920599  0.344657 -0.190925  0.010537 0 0 0 0
3710668149 -0.915558  0.385247 -0.178439  0.027869 0 0 0 0
3725334782 -0.894626  0.397650 -0.166415  0.037063 0 0 0 0
3740001415 -0.887999  0.406723 -0.152505  0.039077 0 0 0 0
3754668048 -0.888798  0.435086 -0.141377  0.044369 0 0 0 0
3769334681 -0.871258  0.446752 -0.126383  0.040718 0 0 0 0
3784001314 -0.858560  0.461826 -0.120566  0.044514 0 0 0 0
3798667947 -0.864742  0.484189 -0.115928  0.037663 0 0 0 0
3813334580 -0.863061  0.498648 -0.112883  0.033079 0 0 0 0
3828001213 -0.857101  0.538605 -0.108469  0.035557 0 0 0 0
3842667846 -0.808221  0.566001 -0.107779  0.031235 0 0 0 0
3857334479 -0.753864  0.567481 -0.108551  0.030314 0 0 0 0
3872001112 -0.775356  0.597311 -0.107602  0.027686 0 0 0 0
3886667745 -0.756328  0.629543 -0.113766  0.026939 0 0 0 0
3901334378 -0.735108  0.632668 -0.110569  0.023799 0 0 0 0
3916001011 -0.736684  0.659688 -0.118804  0.025944 0 0 0 0
3930667644 -0.709248  0.651088 -0.116864  0.022121 0 0 0 0
3945334277 -0.681269  0.663568 -0.124051  0.026072 0 0 0 0
3960000910 -0.678124  0.672787 -0.135021  0.029039 0 0 0 0
3974667543 -0.692705  0.730102 -0.141139  0.030647 0 0 0 0
3989334176 -0.615112  0.724138 -0.157190  0.032474 0 0 0 0
4004000809 -0.607350  0.739270 -0.162322  0.046880 0 0 0 0
4018667442 -0.638683  0.762274 -0.181902  0.055943 0 0 0 0
4033334075 -0.593008  0.776939 -0.188774  0.069849 0 0 0 0
4048000708 -0.569038  0.788248 -0.203070  0.101903 0 0 0 0
4062667341 -0.533883  0.809997 -0.200803  0.125964 0 0 0 0
4077333974 -0.487031  0.830706 -0.186531  0.165303 0 0 0 0
4092000607 -0.537640  0.808480 -0.171080  0.197696 0 0 0 0
4106667240 -0.473714  0.804171 -0.134013  0.215916 0 0 0 0
4121333873 -0.424004  0.774598 -0.102308  0.228764 0 0 0 0
4136000506 -0.382926  0.834551 -0.065664  0.231448 0 0 0 0
4150667139 -0.320993  0.880935 -0.050121  0.221754 0 0 0 0
4165333772 -0.311101  0.832010 -0.025246  0.210922 0 0 0 0
4180000405 -0.390073  0.864412 -0.013086  0.192155 0 0 0 0
4194667038 -0.226934  0.885360 -0.012343  0.192634 0 0 0 0
4209333671 -0.195251  0.821935 -0.012457  0.186901 0 0 0 0
4224000304 -0.200527  0.941774 -0.010287  0.193626 0 0 0 0
4238666937 -0.198656  0.813208 -0.003433  0.201967 0 0 0 0
4253333570 -0.129151  0.893038  0.007317  0.220017 0 0 0 0
4268000203 -0.146572  0.817541  0.024390  0.226494 0 0 0 0
4282666836 -0.090175  0.773529  0.063156  0.239634 0 0 0 0
4297333469 -0.070623  0.760917  0.100320  0.230912 0 0 0 0
4312000102 -0.079136  0.720138  0.135874  0.206953 0 0 0 0
4326666735 -0.073374  0.813820  0.160083  0.176243 0 0 0 0
4341333368 -0.101107  0.808901  0.171818  0.142900 0 0 0 0
4356000001 -0.072478  0.753635  0.175764  0.110537 0 0 0 0
4370666634 -0.084055  0.860232  0.164434  0.087875 0 0 0 0
4385333267 -0.034417  0.789679  0.162530  0.066947 0 0 0 0
4399999900 -0.013368  0.831237  0.155245  0.048925 0 0 0 0
