!File created by NanoVNA-F V2
# Hz S RI R 50
 400000000  0.555865  0.226810
 400333333  0.562825  0.209758
 400666666  0.568301  0.192110
 400999999  0.573271  0.176171
 401333332  0.578499  0.158825
 401666665  0.582129  0.142083
 401999998  0.586967  0.126230
 402333331  0.590635  0.107548
 402666664  0.593688  0.090126
 402999997  0.595645  0.073262
 403333330  0.597489  0.055897
 403666663  0.599109  0.038956
 403999996  0.599533  0.021803
 404333329  0.599366  0.004727
 404666662  0.599401 -0.013756
 404999995  0.598013 -0.031391
 405333328  0.597662 -0.048880
 405666661  0.593590 -0.066975
 405999994  0.592361 -0.083292
 406333327  0.588294 -0.100719
 406666660  0.583527 -0.118747
 406999993  0.580163 -0.134413
 407333326  0.574252 -0.151005
 407666659  0.570070 -0.167271
 407999992  0.566078 -0.182637
 408333325  0.558193 -0.198314
 408666658  0.549799 -0.212872
 408999991  0.544437 -0.228647
 409333324  0.536509 -0.243621
 409666657  0.529537 -0.258235
 409999990  0.522386 -0.274317
 410333323  0.512820 -0.288894
 410666656  0.502869 -0.302573
 410999989  0.494658 -0.316233
 411333322  0.485414 -0.330735
 411666655  0.476366 -0.344214
 411999988  0.465208 -0.357489
 412333321  0.452486 -0.369829
 412666654  0.440986 -0.383062
 412999987  0.430809 -0.395153
 413333320  0.418983 -0.406463
 413666653  0.404938 -0.418959
 413999986  0.393149 -0.429750
 414333319  0.379048 -0.439736
 414666652  0.365846 -0.451700
 414999985  0.353348 -0.459796
 415333318  0.339413 -0.470795
 415666651  0.325518 -0.480661
 415999984  0.311646 -0.488177
 416333317  0.295380 -0.496698
 416666650  0.280067 -0.504828
 416999983  0.265640 -0.513916
 417333316  0.249302 -0.520584
 417666649  0.235378 -0.527110
 417999982  0.218619 -0.531580
 418333315  0.202238 -0.540789
 418666648  0.186624 -0.546006
 418999981  0.169013 -0.549930
 419333314  0.153256 -0.553743
 419666647  0.135856 -0.559095
 419999980  0.119068 -0.563178
 420333313  0.101425 -0.566819
 420666646  0.084331 -0.568937
 420999979  0.067396 -0.573113
 421333312  0.047926 -0.574606
 421666645  0.031311 -0.575613
 421999978  0.013695 -0.575984
 422333311 -0.005392 -0.577384
 422666644 -0.022227 -0.578360
 422999977 -0.041693 -0.577088
 423333310 -0.058462 -0.575857
 423666643 -0.079039 -0.575382
 423999976 -0.097829 -0.571066
 424333309 -0.115792 -0.568042
 424666642 -0.137043 -0.563662
 424999975 -0.155988 -0.560422
 425333308 -0.172502 -0.555089
 425666641 -0.192159 -0.549261
 425999974 -0.211266 -0.542125
 426333307 -0.230365 -0.535374
 426666640 -0.248977 -0.528481
 426999973 -0.266694 -0.518234
 427333306 -0.285720 -0.509076
 427666639 -0.301376 -0.499663
 427999972 -0.319149 -0.489008
 428333305 -0.336823 -0.477724
 428666638 -0.353859 -0.467654
 428999971 -0.371147 -0.451982
 429333304 -0.388032 -0.440422
 429666637 -0.404377 -0.426007
 429999970 -0.418863 -0.412368
 430333303 -0.433962 -0.397409
 430666636 -0.448257 -0.382388
 430999969 -0.462932 -0.365459
 431333302 -0.476789 -0.348746
 431666635 -0.488115 -0.330935
 431999968 -0.502528 -0.312574
 432333301 -0.511705 -0.293715
 432666634 -0.525679 -0.273005
 432999967 -0.534837 -0.253869
 433333300 -0.536056  0.172662
 433666633 -0.560105 -0.212720
 433999966 -0.567894 -0.193602
 434333299 -0.574348 -0.170135
 434666632 -0.579976 -0.146881
 434999965 -0.586437 -0.125256
 435333298 -0.589149 -0.102221
 435666631 -0.592907 -0.078637
 435999964 -0.595209 -0.053061
 436333297 -0.595194 -0.032596
 436666630 -0.596570 -0.007891
 436999963 -0.595743  0.014866
 437333296 -0.593741  0.038855
 437666629 -0.590321  0.061758
 437999962 -0.586741  0.085671
 438333295 -0.583108  0.105579
 438666628 -0.577656  0.130580
 438999961 -0.570378  0.152902
 439333294 -0.563604  0.174222
 439666627 -0.554765  0.195538
 439999960 -0.546700  0.216322
 440333293 -0.535980  0.237753
 440666626 -0.526230  0.259423
 440999959 -0.514770  0.277117
 441333292 -0.503360  0.296041
 441666625 -0.487818  0.314873
 441999958 -0.476459  0.332751
 442333291 -0.462014  0.352429
 442666624 -0.446087  0.367018
 442999957 -0.430942  0.383687
 443333290 -0.415568  0.398789
 443666623 -0.399332  0.413151
 443999956 -0.382312  0.427973
 444333289 -0.364287  0.439291
 444666622 -0.346662  0.451199
 444999955 -0.329176  0.463444
 445333288 -0.310480  0.474576
 445666621 -0.291991  0.485346
 445999954 -0.271948  0.492734
 446333287 -0.252854  0.501454
 446666620 -0.232744  0.510021
 446999953 -0.214142  0.517483
 447333286 -0.193756  0.522454
 447666619 -0.171703  0.528909
 447999952 -0.152764  0.534525
 448333285 -0.131229  0.536032
 448666618 -0.110009  0.541586
 448999951 -0.088797  0.543631
 449333284 -0.068923  0.544631
 449666617 -0.046998  0.545943
 449999950 -0.024496  0.543902
 450333283 -0.004119  0.540884
 450666616  0.017186  0.538180
 450999949  0.039428  0.535129
 451333282  0.061786  0.532181
 451666615  0.082751  0.525708
 451999948  0.103482  0.517002
 452333281  0.124566  0.507995
 452666614  0.144466  0.498988
 452999947  0.164044  0.488960
 453333280  0.184298  0.475467
 453666613  0.201304  0.462679
 453999946  0.220299  0.449677
 454333279  0.238232  0.432593
 454666612  0.253970  0.415164
 454999945  0.268378  0.393458
 455333278  0.282903  0.373610
 455666611  0.295341  0.349763
 455999944  0.305752  0.328237
 456333277  0.314151  0.300568
 456666610  0.317309  0.275199
 456999943  0.320722  0.245751
 457333276  0.319825  0.218617
 457666609  0.314964  0.189498
 457999942  0.306712  0.159645
 458333275  0.295636  0.129382
 458666608  0.277294  0.103277
 458999941  0.253856  0.076918
 459333274  0.227088  0.052874
 459666607  0.192536  0.034859
 459999940  0.156881  0.021170
 460333273  0.114900  0.015108
 460666606  0.070173  0.016151
 460999939  0.023862  0.027950
 461333272 -0.020636  0.049208
 461666605 -0.061588  0.079283
 461999938 -0.096185  0.121303
 462333271 -0.123392  0.171250
 462666604 -0.138628  0.225654
 462999937 -0.143833  0.283727
 463333270 -0.138893  0.343134
 463666603 -0.120462  0.398089
 463999936 -0.091187  0.451624
 464333269 -0.056919  0.496575
 464666602 -0.014240  0.536734
 464999935  0.032573  0.566918
 465333268  0.082151  0.589180
 465666601  0.131046  0.605042
 465999934  0.182069  0.613780
 466333267  0.232098  0.618205
 466666600  0.280659  0.615677
 466999933  0.327029  0.609415
 467333266  0.371094  0.596945
 467666599  0.412157  0.583948
 467999932  0.451512  0.563903
 468333265  0.487354  0.545138
 468666598  0.521601  0.523658
 468999931  0.555194  0.498287
 469333264  0.584292  0.473825
 469666597  0.611382  0.447295
 469999930  0.637983  0.417133
 470333263  0.659755  0.390420
 470666596  0.679928  0.358561
 470999929  0.698354  0.331979
 471333262  0.714128  0.302171
 471666595  0.727089  0.270425
 471999928  0.742609  0.240626
 472333261  0.754643  0.208441
 472666594  0.764128  0.176631
 472999927  0.771457  0.146517
 473333260  0.778918  0.114587
 473666593  0.782701  0.083949
 473999926  0.788149  0.053570
 474333259  0.790578  0.022659
 474666592  0.794252 -0.009174
 474999925  0.791275 -0.039117
 475333258  0.789044 -0.068018
 475666591  0.788352 -0.100141
 475999924  0.784616 -0.129136
 476333257  0.779098 -0.159855
 476666590  0.774000 -0.189179
 476999923  0.764416 -0.216494
 477333256  0.758180 -0.243993
 477666589  0.749164 -0.270157
 477999922  0.737882 -0.298300
 478333255  0.726581 -0.324986
 478666588  0.715209 -0.352791
 478999921  0.703555 -0.376121
 479333254  0.688428 -0.400859
 479666587  0.673433 -0.425768
 479999920  0.658463 -0.448549
 480333253  0.640671 -0.472924
 480666586  0.622971 -0.494498
 480999919  0.605120 -0.517155
 481333252  0.590463 -0.536441
 481666585  0.569175 -0.557040
 481999918  0.550836 -0.576922
 482333251  0.527502 -0.597503
 482666584  0.506616 -0.614002
 482999917  0.484983 -0.629544
 483333250  0.465279 -0.644717
 483666583  0.440583 -0.659878
 483999916  0.415595 -0.677492
 484333249  0.391227 -0.688142
 484666582  0.368130 -0.703478
 484999915  0.345134 -0.714183
 485333248  0.317519 -0.726480
 485666581  0.293719 -0.737128
 485999914  0.268942 -0.746827
 486333247  0.241090 -0.756390
 486666580  0.217214 -0.764592
 486999913  0.190621 -0.772106
 487333246  0.162697 -0.777318
 487666579  0.135857 -0.783193
 487999912  0.109905 -0.789722
 488333245  0.082144 -0.794187
 488666578  0.055705 -0.796490
 488999911  0.027839 -0.801084
 489333244  0.000551 -0.804469
 489666577 -0.028225 -0.803887
 489999910 -0.059695 -0.803923
 490333243 -0.089726 -0.803655
 490666576 -0.120843 -0.801669
 490999909 -0.148197 -0.796281
 491333242 -0.179986 -0.793105
 491666575 -0.211761 -0.786223
 491999908 -0.240086 -0.777321
 492333241 -0.270359 -0.768030
 492666574 -0.300845 -0.758020
 492999907 -0.330827 -0.744239
 493333240 -0.359439 -0.730165
 493666573 -0.387263 -0.718335
 493999906 -0.414282 -0.700843
 494333239 -0.441050 -0.684833
 494666572 -0.468577 -0.665807
 494999905 -0.489414 -0.648163
 495333238 -0.516320 -0.627453
 495666571 -0.538826 -0.606284
 495999904 -0.560633 -0.583886
 496333237 -0.580769 -0.562124
 496666570 -0.602384 -0.539553
 496999903 -0.620373 -0.516253
 497333236 -0.640024 -0.492471
 497666569 -0.656855 -0.467985
 497999902 -0.674342 -0.437972
 498333235 -0.691732 -0.413131
 498666568 -0.704832 -0.386512
 498999901 -0.718379 -0.358859
 499333234 -0.730170 -0.330547
 499666567 -0.740771 -0.305683
 499999900 -0.751409 -0.276766
