!File created by NanoVNA-F V2
# Hz S RI R 50
 800000000  0.026172  0.212007
 801000000  0.073801  0.202787
 802000000  0.108045  0.169910
 803000000  0.117222  0.125332
 804000000  0.099143  0.085994
 805000000  0.062317  0.065782
 806000000  0.023535  0.072903
 807000000 -0.003553  0.103642
 808000000 -0.005850  0.145725
 809000000  0.020172  0.181757
 810000000  0.064709  0.194000
 811000000  0.109569  0.178830
 812000000  0.138128  0.139815
 813000000  0.138795  0.089060
 814000000  0.110761  0.048154
 815000000  0.065056  0.029776
 816000000  0.018553  0.042680
 817000000 -0.012515  0.079513
 818000000 -0.013304  0.124137
 819000000  0.012970  0.161288
 820000000  0.053745  0.174145
 821000000  0.092516  0.159821
 822000000  0.116466  0.125434
 823000000  0.112400  0.084535
 824000000  0.086504  0.054192
 825000000  0.048328  0.045640
 826000000  0.011868  0.060646
 827000000 -0.006843  0.094548
 828000000 -0.004443  0.131639
 829000000  0.018861  0.159052
 830000000  0.051826  0.166410
 831000000  0.080851  0.154497
 832000000  0.096740  0.132115
 833000000  0.095602  0.107138
 834000000  0.082707  0.091239
 835000000  0.067063  0.086661
 836000000  0.055005  0.093831
 837000000  0.053212  0.105481
 838000000  0.033361 -0.075158
 839000000  0.073495  0.114429
 840000000  0.083763  0.105003
 841000000  0.088089  0.090789
 842000000  0.083333  0.075704
 843000000  0.071069  0.063465
 844000000  0.054105  0.057465
 845000000  0.039376  0.060817
 846000000  0.026059  0.070046
 847000000  0.021211  0.082423
 848000000  0.021641  0.093722
 849000000  0.024831  0.101232
 850000000  0.030536  0.105985
 851000000  0.034784  0.109335
 852000000  0.038963  0.109398
 853000000  0.043706  0.109028
 854000000  0.049371  0.105011
 855000000  0.051406  0.098403
 856000000  0.048788  0.090344
 857000000  0.041673  0.082762
 858000000  0.029650  0.081168
 859000000  0.017435  0.085290
 860000000  0.008625  0.095232
 861000000  0.006212  0.110510
 862000000  0.009617  0.123208
 863000000  0.017531  0.134358
 864000000  0.030252  0.137633
 865000000  0.041155  0.134217
 866000000  0.046156  0.128707
 867000000  0.047884  0.122401
 868000000  0.045100  0.117863
 869000000  0.039742  0.115227
 870000000  0.035511  0.119035
 871000000  0.032038  0.125571
 872000000  0.034128  0.132740
 873000000  0.040365  0.140868
 874000000  0.050024  0.144300
 875000000  0.062345  0.141089
 876000000  0.072689  0.135449
 877000000  0.079143  0.123971
 878000000  0.080841  0.109228
 879000000  0.073900  0.095401
 880000000  0.063354  0.084066
 881000000  0.048137  0.080303
 882000000  0.030678  0.083123
 883000000  0.017224  0.094499
 884000000  0.009444  0.112390
 885000000  0.011788  0.129544
 886000000  0.021133  0.145134
 887000000  0.039806  0.153198
 888000000  0.055975  0.150136
 889000000  0.069957  0.137692
 890000000  0.072216  0.120902
 891000000  0.062493  0.105506
 892000000  0.045832  0.100607
 893000000  0.028831  0.105364
 894000000  0.016866  0.122883
 895000000  0.017297  0.145773
 896000000  0.031632  0.166018
 897000000  0.057729  0.175689
 898000000  0.084425  0.171967
 899000000  0.107942  0.150085
 900000000  0.118167  0.118249
