!File created by NanoVNA-F V2
# Hz S RI R 50
 800000000 -0.204812  0.543533
 800333333 -0.209046  0.535675
 800666666 -0.212977  0.530800
 800999999 -0.218209  0.525900
 801333332 -0.228264  0.522582
 801666665 -0.231691  0.522955
 801999998 -0.239204  0.522638
 802333331 -0.247516  0.526041
 802666664 -0.253157  0.529823
 802999997 -0.257490  0.534734
 803333330 -0.263271  0.542367
 803666663 -0.260941  0.551025
 803999996 -0.262747  0.558538
 804333329 -0.258494  0.567615
 804666662 -0.254062  0.573105
 804999995 -0.249528  0.577546
 805333328 -0.239045  0.581681
 805666661 -0.235512  0.582456
 805999994 -0.228961  0.581635
 806333327 -0.220871  0.582256
 806666660 -0.214576  0.578601
 806999993 -0.210035  0.576172
 807333326 -0.205547  0.568994
 807666659 -0.204635  0.561744
 807999992 -0.201943  0.556022
 808333325 -0.205941  0.549468
 808666658 -0.207123  0.543869
 808999991 -0.215280  0.536165
 809333324 -0.219041  0.533004
 809666657 -0.227615  0.530722
 809999990 -0.235821  0.531587
 810333323 -0.245193  0.534208
 810666656 -0.255440  0.539708
 810999989 -0.263076  0.547002
 811333322 -0.271516  0.556869
 811666655 -0.271744  0.570856
 811999988 -0.275539  0.582139
 812333321 -0.272073  0.594476
 812666654 -0.265378  0.608166
 812999987 -0.257746  0.620891
 813333320 -0.248467  0.629760
 813666653 -0.235036  0.638699
 813999986 -0.223514  0.642948
 814333319 -0.209149  0.644063
 814666652 -0.197419  0.646635
 814999985 -0.179361  0.644001
 815333318 -0.166468  0.641011
 815666651 -0.154328  0.633870
 815999984 -0.141871  0.628925
 816333317 -0.129450  0.618464
 816666650 -0.118847  0.609136
 816999983 -0.108510  0.595291
 817333316 -0.101346  0.582597
 817666649 -0.096644  0.567245
 817999982 -0.094493  0.550175
 818333315 -0.093231  0.533028
 818666648 -0.096959  0.515646
 818999981 -0.100942  0.497235
 819333314 -0.109655  0.479227
 819666647 -0.122965  0.462837
 819999980 -0.139740  0.448713
 820333313 -0.160108  0.438040
 820666646 -0.184181  0.430390
 820999979 -0.208578  0.427840
 821333312 -0.234557  0.431788
 821666645 -0.257325  0.444999
 821999978 -0.278935  0.461221
 822333311 -0.294000  0.480688
 822666644 -0.303438  0.504965
 822999977 -0.310454  0.526774
 823333310 -0.306732  0.551555
 823666643 -0.298429  0.575511
 823999976 -0.289127  0.594757
 824333309 -0.274001  0.610654
 824666642 -0.259601  0.623107
 824999975 -0.240817  0.628528
 825333308 -0.221959  0.634925
 825666641 -0.202769  0.635482
 825999974 -0.184657  0.632912
 826333307 -0.169659  0.628007
 826666640 -0.154311  0.619410
 826999973 -0.141324  0.611888
 827333306 -0.129681  0.599375
 827666639 -0.119320  0.585234
 827999972 -0.110307  0.569921
 828333305 -0.104702  0.552457
 828666638 -0.102675  0.534228
 828999971 -0.104431  0.514790
 829333304 -0.106693  0.495220
 829666637 -0.114156  0.476967
 829999970 -0.127667  0.457565
 830333303 -0.141099  0.441311
 830666636 -0.162768  0.428923
 830999969 -0.184402  0.417789
 831333302 -0.210152  0.412989
 831666635 -0.237299  0.412915
 831999968 -0.265369  0.418630
 832333301 -0.291638  0.432201
 832666634 -0.313436  0.451583
 832999967 -0.330198  0.473633
 833333300 -0.342464  0.498701
 833666633 -0.348129  0.526544
 833999966 -0.345812  0.552238
 834333299 -0.344543  0.578375
 834666632 -0.332411  0.603120
 834999965 -0.322381  0.622070
 835333298 -0.305851  0.638367
 835666631 -0.286592  0.651629
 835999964 -0.270458  0.660631
 836333297 -0.251619  0.667267
 836666630 -0.235347  0.671775
 836999963 -0.214739  0.674655
 837333296 -0.199419  0.671071
 837666629 -0.182766  0.667551
 837999962 -0.166401  0.663722
 838333295 -0.152220  0.656696
 838666628 -0.139891  0.647943
 838999961 -0.129109  0.639441
 839333294 -0.118422  0.628649
 839666627 -0.110633  0.616781
 839999960 -0.102957  0.604823
 840333293 -0.096668  0.589161
 840666626 -0.094740  0.573243
 840999959 -0.091069  0.557955
 841333292 -0.094433  0.542444
 841666625 -0.098001  0.527392
 841999958 -0.107324  0.512388
 842333291 -0.115289  0.497917
 842666624 -0.124664  0.486512
 842999957 -0.138947  0.476754
 843333290 -0.154520  0.468781
 843666623 -0.172388  0.463991
 843999956 -0.190917  0.462885
 844333289 -0.210193  0.466160
 844666622 -0.224162  0.474181
 844999955 -0.240532  0.485111
 845333288 -0.254266  0.498811
 845666621 -0.264677  0.514436
 845999954 -0.269112  0.533159
 846333287 -0.270344  0.552317
 846666620 -0.269348  0.570796
 846999953 -0.263307  0.586741
 847333286 -0.253772  0.602361
 847666619 -0.241516  0.614766
 847999952 -0.228883  0.624656
 848333285 -0.213633  0.631290
 848666618 -0.199222  0.636506
 848999951 -0.184628  0.639381
 849333284 -0.167261  0.639231
 849666617 -0.153636  0.636522
 849999950 -0.138155  0.632543
 850333283 -0.123139  0.626078
 850666616 -0.111138  0.617986
 850999949 -0.099884  0.609103
 851333282 -0.090983  0.597159
 851666615 -0.082039  0.584344
 851999948 -0.073632  0.569898
 852333281 -0.069589  0.554097
 852666614 -0.069292  0.537039
 852999947 -0.066075  0.519879
 853333280 -0.068163  0.500790
 853666613 -0.071998  0.483790
 853999946 -0.078420  0.465848
 854333279 -0.090663  0.446866
 854666612 -0.107747  0.430700
 854999945 -0.126229  0.416566
 855333278 -0.146737  0.404121
 855666611 -0.171503  0.396591
 855999944 -0.197388  0.392152
 856333277 -0.224680  0.394470
 856666610 -0.249397  0.402293
 856999943 -0.275859  0.415002
 857333276 -0.299187  0.431809
 857666609 -0.314254  0.455624
 857999942 -0.326510  0.481830
 858333275 -0.336371  0.508908
 858666608 -0.339086  0.534542
 858999941 -0.336447  0.560768
 859333274 -0.327404  0.586892
 859666607 -0.318160  0.606133
 859999940 -0.303493  0.625243
 860333273 -0.288266  0.640351
 860666606 -0.267996  0.652628
 860999939 -0.247715  0.664238
 861333272 -0.229138  0.668633
 861666605 -0.210627  0.670506
 861999938 -0.195528  0.671329
 862333271 -0.178465  0.668525
 862666604 -0.157548  0.664071
 862999937 -0.142004  0.658558
 863333270 -0.127850  0.652523
 863666603 -0.116035  0.641616
 863999936 -0.103772  0.628490
 864333269 -0.093309  0.616774
 864666602 -0.083670  0.602208
 864999935 -0.077760  0.586543
 865333268 -0.071195  0.570114
 865666601 -0.070012  0.552743
 865999934 -0.070452  0.535485
 866333267 -0.074738  0.517318
 866666600 -0.080533  0.498431
 866999933 -0.089118  0.482375
 867333266 -0.102516  0.466686
 867666599 -0.118004  0.451729
 867999932 -0.134638  0.440896
 868333265 -0.157119  0.431737
 868666598 -0.180857  0.427287
 868999931 -0.205214  0.428078
 869333264 -0.232820  0.433451
 869666597 -0.255287  0.445306
 869999930 -0.279339  0.461150
 870333263 -0.295408  0.481492
 870666596 -0.302828  0.508297
 870999929 -0.312862  0.531633
 871333262 -0.314947  0.557008
 871666595 -0.308568  0.583995
 871999928 -0.300472  0.605591
 872333261 -0.289756  0.627459
 872666594 -0.274845  0.643665
 872999927 -0.260311  0.659487
 873333260 -0.243306  0.670145
 873666593 -0.225359  0.677298
 873999926 -0.207500  0.682898
 874333259 -0.183989  0.685034
 874666592 -0.166266  0.683594
 874999925 -0.149272  0.680405
 875333258 -0.131004  0.676591
 875666591 -0.114735  0.670312
 875999924 -0.099794  0.660987
 876333257 -0.086702  0.653708
 876666590 -0.074645  0.640859
 876999923 -0.065286  0.628241
 877333256 -0.054433  0.614903
 877666589 -0.046757  0.598409
 877999922 -0.039629  0.582647
 878333255 -0.034573  0.562287
 878666588 -0.035647  0.545846
 878999921 -0.036627  0.526703
 879333254 -0.040441  0.507052
 879666587 -0.047092  0.489401
 879999920 -0.058094  0.470657
 880333253 -0.070470  0.453443
 880666586 -0.084808  0.437997
 880999919 -0.106014  0.424686
 881333252 -0.126817  0.415225
 881666585 -0.151641  0.410946
 881999918 -0.176926  0.409456
 882333251 -0.201195  0.415710
 882666584 -0.225330  0.425700
 882999917 -0.246770  0.438985
 883333250 -0.265346  0.459670
 883666583 -0.280134  0.482213
 883999916 -0.287494  0.505390
 884333249 -0.291366  0.528379
 884666582 -0.287649  0.551517
 884999915 -0.281473  0.571057
 885333248 -0.271405  0.592629
 885666581 -0.262662  0.608062
 885999914 -0.248153  0.619114
 886333247 -0.235985  0.630757
 886666580 -0.216764  0.640805
 886999913 -0.201970  0.645634
 887333246 -0.185559  0.646983
 887666579 -0.167855  0.644509
 887999912 -0.155987  0.641753
 888333245 -0.141343  0.636723
 888666578 -0.127280  0.630577
 888999911 -0.117741  0.621830
 889333244 -0.108312  0.613088
 889666577 -0.099509  0.602458
 889999910 -0.094969  0.591450
 890333243 -0.091549  0.578939
 890666576 -0.089012  0.565687
 890999909 -0.089966  0.552904
 891333242 -0.091411  0.542228
 891666575 -0.096342  0.531405
 891999908 -0.103562  0.520842
 892333241 -0.113346  0.511846
 892666574 -0.121834  0.504360
 892999907 -0.131422  0.498874
 893333240 -0.142947  0.495713
 893666573 -0.157254  0.493422
 893999906 -0.165476  0.496059
 894333239  0.356156  0.117916
 894666572 -0.187771  0.504776
 894999905 -0.194433  0.511209
 895333238 -0.201300  0.517521
 895666571 -0.204561  0.527166
 895999904 -0.208578  0.534624
 896333237 -0.209348  0.544308
 896666570 -0.208653  0.552701
 896999903 -0.208378  0.562754
 897333236 -0.203362  0.568277
 897666569 -0.201075  0.573969
 897999902 -0.197423  0.579488
 898333235 -0.192860  0.582872
 898666568 -0.187407  0.585354
 898999901 -0.184922  0.585276
 899333234 -0.176357  0.590027
 899666567 -0.172951  0.593820
 899999900 -0.170506  0.593848
