!File created by NanoVNA-F V2
# Hz S RI R 50
 800000000  0.000599 -0.023289
 801000000 -0.038197 -0.040456
 802000000 -0.077029 -0.033205
 803000000 -0.104787 -0.006060
 804000000 -0.111274  0.030314
 805000000 -0.093635  0.063291
 806000000 -0.060050  0.075557
 807000000 -0.024394  0.065311
 808000000 -0.003791  0.031890
 809000000 -0.007299 -0.011576
 810000000 -0.035104 -0.046644
 811000000 -0.082153 -0.057668
 812000000 -0.129296 -0.041238
 813000000 -0.159392 -0.004280
 814000000 -0.164031  0.045558
 815000000 -0.138357  0.088167
 816000000 -0.095682  0.109736
 817000000 -0.049291  0.100349
 818000000 -0.018391  0.064574
 819000000 -0.017280  0.020176
 820000000 -0.042482 -0.015440
 821000000 -0.084898 -0.030087
 822000000 -0.125250 -0.014553
 823000000 -0.149554  0.019949
 824000000 -0.150717  0.061112
 825000000 -0.128472  0.094632
 826000000 -0.089328  0.107874
 827000000 -0.052913  0.096433
 828000000 -0.030204  0.066972
 829000000 -0.031387  0.031389
 830000000 -0.051932  0.004498
 831000000 -0.081276 -0.006756
 832000000 -0.107149  0.001725
 833000000 -0.124441  0.020977
 834000000 -0.125884  0.042582
 835000000 -0.117060  0.057503
 836000000 -0.104314  0.060121
 837000000 -0.094587  0.052810
 838000000 -0.094558  0.041747
 839000000 -0.103761  0.032026
 840000000 -0.119158  0.030984
 841000000 -0.132985  0.037958
 842000000 -0.144658  0.050209
 843000000 -0.147844  0.068966
 844000000 -0.144548  0.085421
 845000000 -0.133060  0.097579
 846000000 -0.121531  0.103621
 847000000 -0.108447  0.104663
 848000000 -0.099526  0.100535
 849000000 -0.093079  0.095670
 850000000 -0.089747  0.090543
 851000000 -0.086834  0.086332
 852000000 -0.087395  0.079690
 853000000 -0.090928  0.075711
 854000000 -0.097967  0.073075
 855000000 -0.106586  0.074822
 856000000 -0.113975  0.082657
 857000000 -0.116284  0.094275
 858000000 -0.111562  0.108019
 859000000 -0.100045  0.116744
 860000000 -0.084034  0.119111
 861000000 -0.070372  0.113889
 862000000 -0.062894  0.102307
 863000000 -0.060771  0.090104
 864000000 -0.066659  0.079271
 865000000 -0.074787  0.073089
 866000000 -0.082184  0.072245
 867000000 -0.089327  0.075530
 868000000 -0.092082  0.081230
 869000000 -0.091695  0.085456
 870000000  0.001220  0.054971
 871000000 -0.081599  0.086718
 872000000 -0.079155  0.082159
 873000000 -0.079290  0.075631
 874000000 -0.084971  0.068535
 875000000 -0.093127  0.064758
 876000000 -0.102780  0.065932
 877000000 -0.113656  0.070611
 878000000 -0.121426  0.080330
 879000000 -0.125818  0.092796
 880000000 -0.125451  0.107724
 881000000 -0.115634  0.120876
 882000000 -0.100880  0.129506
 883000000 -0.080906  0.128863
 884000000 -0.065605  0.120851
 885000000 -0.057130  0.105125
 886000000 -0.058652  0.088253
 887000000 -0.067454  0.073844
 888000000 -0.083453  0.065899
 889000000 -0.100906  0.070984
 890000000 -0.112725  0.083387
 891000000 -0.115049  0.100653
 892000000 -0.106261  0.116040
 893000000 -0.089575  0.122041
 894000000 -0.072207  0.115602
 895000000 -0.061790  0.099308
 896000000 -0.062503  0.078513
 897000000 -0.077704  0.060112
 898000000 -0.103614  0.052883
 899000000 -0.129461  0.059117
 900000000 -0.148542  0.082462
