!File created by NanoVNA-F V2
# Hz S RI R 50
 400000000  0.825087 -0.229104
 400333333  0.829820 -0.224115
 400666666  0.832911 -0.221775
 400999999  0.838460 -0.218068
 401333332  0.842403 -0.213901
 401666665  0.845979 -0.212512
 401999998  0.854364 -0.207919
 402333331  0.856275 -0.208536
 402666664  0.861950 -0.208393
 402999997  0.866724 -0.207148
 403333330  0.870323 -0.207572
 403666663  0.875720 -0.206722
 403999996  0.878314 -0.208784
 404333329  0.882732 -0.206846
 404666662  0.886451 -0.209262
 404999995  0.890247 -0.212100
 405333328  0.895170 -0.210625
 405666661  0.895760 -0.211603
 405999994  0.901629 -0.213304
 406333327  0.901779 -0.215406
 406666660  0.904574 -0.217559
 406999993  0.906721 -0.221043
 407333326  0.907484 -0.220417
 407666659  0.910962 -0.221641
 407999992  0.914116 -0.222959
 408333325  0.915414 -0.222768
 408666658  0.913003 -0.227385
 408999991  0.917960 -0.227870
 409333324  0.917350 -0.230801
 409666657  0.919301 -0.230354
 409999990  0.921298 -0.233371
 410333323  0.921744 -0.235256
 410666656  0.922957 -0.236955
 410999989  0.922694 -0.239643
 411333322  0.923764 -0.237546
 411666655  0.923539 -0.241385
 411999988  0.926218 -0.241889
 412333321  0.924714 -0.242495
 412666654  0.926195 -0.245756
 412999987  0.928324 -0.246638
 413333320  0.927332 -0.248286
 413666653  0.928452 -0.249350
 413999986  0.926878 -0.251619
 414333319  0.929079 -0.249247
 414666652  0.929271 -0.252519
 414999985  0.928668 -0.253876
 415333318  0.930356 -0.252344
 415666651  0.931570 -0.254696
 415999984  0.929819 -0.258246
 416333317  0.930447 -0.260347
 416666650  0.931830 -0.258921
 416999983  0.931430 -0.260921
 417333316  0.931241 -0.260423
 417666649  0.931223 -0.264617
 417999982  0.931645 -0.262915
 418333315  0.932799 -0.264653
 418666648  0.933090 -0.264958
 418999981  0.933845 -0.264751
 419333314  0.930572 -0.267287
 419666647  0.932779 -0.268322
 419999980  0.932944 -0.271188
 420333313  0.934118 -0.269455
 420666646  0.930554 -0.272891
 420999979  0.934335 -0.273793
 421333312  0.931200 -0.275404
 421666645  0.932041 -0.271898
 421999978  0.934183 -0.274674
 422333311  0.934657 -0.278044
 422666644  0.934128 -0.276806
 422999977  0.931823 -0.279542
 423333310  0.933000 -0.278340
 423666643  0.932827 -0.283070
 423999976  0.933707 -0.280325
 424333309  0.931058 -0.282263
 424666642  0.931846 -0.282599
 424999975  0.933677 -0.283375
 425333308  0.932589 -0.284211
 425666641  0.934092 -0.285821
 425999974  0.933452 -0.285709
 426333307  0.934742 -0.287155
 426666640  0.932703 -0.291673
 426999973  0.931611 -0.289295
 427333306  0.931946 -0.291831
 427666639  0.932889 -0.290834
 427999972  0.933266 -0.290703
 428333305  0.932385 -0.291664
 428666638  0.933170 -0.294408
 428999971  0.932319 -0.295296
 429333304  0.933527 -0.296040
 429666637  0.931181 -0.299395
 429999970  0.931152 -0.299576
 430333303  0.930242 -0.297700
 430666636  0.931034 -0.301056
 430999969  0.930157 -0.302425
 431333302  0.932328 -0.303058
 431666635  0.930458 -0.303539
 431999968  0.930469 -0.303849
 432333301  0.928119 -0.304017
 432666634  0.929200 -0.307124
 432999967  0.928887 -0.304796
 433333300  0.929921 -0.308832
 433666633  0.929629 -0.308571
 433999966  0.929196 -0.310364
 434333299  0.926426 -0.312208
 434666632  0.928323 -0.312045
 434999965  0.926962 -0.313257
 435333298  0.926713 -0.312319
 435666631  0.925541 -0.314536
 435999964  0.928796 -0.314485
 436333297  0.925203 -0.317237
 436666630  0.923317 -0.317306
 436999963  0.926244 -0.315476
 437333296  0.924067 -0.317652
 437666629  0.924136 -0.321560
 437999962  0.416872 -0.849240
 438333295  0.924917 -0.321872
 438666628  0.922018 -0.323610
 438999961  0.921140 -0.322106
 439333294  0.922197 -0.325664
 439666627  0.920697 -0.325693
 439999960  0.919719 -0.326634
 440333293  0.915269 -0.328290
 440666626  0.919283 -0.327648
 440999959  0.917450 -0.327659
 441333292  0.916266 -0.331863
 441666625  0.916037 -0.332056
 441999958  0.915897 -0.333349
 442333291  0.915396 -0.333227
 442666624  0.915577 -0.331914
 442999957  0.914395 -0.335359
 443333290  0.913301 -0.333976
 443666623  0.912053 -0.338382
 443999956  0.912004 -0.339885
 444333289  0.910428 -0.340571
 444666622  0.910197 -0.339630
 444999955  0.908713 -0.340973
 445333288  0.908277 -0.343580
 445666621  0.909451 -0.344221
 445999954  0.907074 -0.344976
 446333287  0.904279 -0.344980
 446666620  0.901920 -0.349172
 446999953  0.903747 -0.346896
 447333286  0.902268 -0.352641
 447666619  0.899989 -0.352235
 447999952  0.898137 -0.353128
 448333285  0.899190 -0.351421
 448666618  0.894046 -0.357244
 448999951  0.893025 -0.359014
 449333284  0.890357 -0.358490
 449666617  0.889972 -0.357173
 449999950  0.888087 -0.357744
 450333283  0.885867 -0.360238
 450666616  0.881075 -0.361757
 450999949  0.883154 -0.362670
 451333282  0.879420 -0.363864
 451666615  0.876336 -0.363736
 451999948  0.872964 -0.366865
 452333281  0.865548 -0.366840
 452666614  0.864454 -0.367701
 452999947  0.858970 -0.367881
 453333280  0.854360 -0.365015
 453666613  0.847036 -0.362198
 453999946  0.844322 -0.359304
 454333279  0.840474 -0.358227
 454666612  0.837220 -0.355986
 454999945  0.832437 -0.350347
 455333278  0.827314 -0.342391
 455666611  0.826455 -0.333967
 455999944  0.828326 -0.326665
 456333277  0.825291 -0.322087
 456666610  0.830435 -0.312706
 456999943  0.835561 -0.308152
 457333276  0.841254 -0.300118
 457666609  0.844440 -0.297390
 457999942  0.855021 -0.296345
 458333275  0.860784 -0.295239
 458666608  0.867803 -0.296026
 458999941  0.873495 -0.295421
 459333274  0.880117 -0.299900
 459666607  0.883398 -0.303540
 459999940  0.887141 -0.308441
 460333273  0.891359 -0.311983
 460666606  0.893955 -0.316659
 460999939  0.894435 -0.323430
 461333272  0.895577 -0.328061
 461666605  0.897726 -0.332000
 461999938  0.896957 -0.339632
 462333271  0.898793 -0.341676
 462666604  0.896313 -0.348533
 462999937  0.895712 -0.351097
 463333270  0.894622 -0.356899
 463666603  0.894520 -0.363224
 463999936  0.889504 -0.368480
 464333269  0.889200 -0.370763
 464666602  0.885520 -0.378629
 464999935  0.883712 -0.383880
 465333268  0.879574 -0.388984
 465666601  0.875258 -0.396480
 465999934  0.871442 -0.401903
 466333267  0.866056 -0.407827
 466666600  0.857650 -0.412503
 466999933  0.852764 -0.419718
 467333266  0.844535 -0.425170
 467666599  0.835777 -0.431311
 467999932  0.824693 -0.439575
 468333265  0.812902 -0.444714
 468666598  0.797052 -0.451147
 468999931  0.783142 -0.461336
 469333264  0.760973 -0.465370
 469666597  0.738416 -0.471109
 469999930  0.713051 -0.474536
 470333263  0.680434 -0.471558
 470666596  0.643778 -0.462670
 470999929  0.603745 -0.446248
 471333262  0.560384 -0.416831
 471666595  0.518624 -0.372899
 471999928  0.490668 -0.310686
 472333261  0.478360 -0.236782
 472666594  0.494287 -0.159765
 472999927  0.534513 -0.088419
 473333260  0.590307 -0.041968
 473666593  0.650575 -0.015403
 473999926  0.709318 -0.005975
 474333259  0.759850 -0.011458
 474666592  0.801825 -0.023178
 474999925  0.832311 -0.039158
 475333258  0.857853 -0.054146
 475666591  0.877894 -0.073975
 475999924  0.893933 -0.090765
 476333257  0.904409 -0.105361
 476666590  0.915215 -0.120039
 476999923  0.920277 -0.131545
 477333256  0.927819 -0.144978
 477666589  0.932597 -0.154441
 477999922  0.936887 -0.166640
 478333255  0.939867 -0.176923
 478666588  0.942299 -0.186907
 478999921  0.943427 -0.192435
 479333254  0.945211 -0.200371
 479666587  0.947952 -0.206643
 479999920  0.947252 -0.211220
 480333253  0.946920 -0.221723
 480666586  0.947789 -0.225655
 480999919  0.947654 -0.232446
 481333252  0.949040 -0.232345
 481666585  0.949736 -0.238410
 481999918  0.951769 -0.242937
 482333251  0.949179 -0.250701
 482666584  0.949133 -0.253588
 482999917  0.949434 -0.254558
 483333250  0.949063 -0.259758
 483666583  0.949212 -0.261743
 483999916  0.947002 -0.266369
 484333249  0.945538 -0.269835
 484666582  0.948758 -0.270707
 484999915  0.947442 -0.275298
 485333248  0.947542 -0.276297
 485666581  0.947445 -0.280900
 485999914  0.946944 -0.283955
 486333247  0.946424 -0.287990
 486666580  0.944243 -0.287232
 486999913  0.947201 -0.287573
 487333246  0.943009 -0.294247
 487666579  0.944409 -0.296371
 487999912  0.944934 -0.294522
 488333245  0.943209 -0.302793
 488666578  0.945336 -0.302998
 488999911  0.944709 -0.304872
 489333244  0.943708 -0.305060
 489666577  0.942415 -0.310596
 489999910  0.941565 -0.310317
 490333243  0.940019 -0.312618
 490666576  0.941498 -0.313966
 490999909  0.939795 -0.314209
 491333242  0.940890 -0.316132
 491666575  0.939698 -0.319534
 491999908  0.938889 -0.318286
 492333241  0.938040 -0.321391
 492666574  0.937374 -0.324266
 492999907  0.936673 -0.323764
 493333240  0.938120 -0.327583
 493666573  0.937575 -0.328214
 493999906  0.935612 -0.330453
 494333239  0.936451 -0.329789
 494666572  0.934882 -0.332690
 494999905  0.936947 -0.334171
 495333238  0.934111 -0.334828
 495666571  0.933114 -0.338263
 495999904  0.931880 -0.338522
 496333237  0.931214 -0.341499
 496666570  0.930609 -0.344111
 496999903  0.930270 -0.345085
 497333236  0.929743 -0.346941
 497666569  0.928668 -0.346678
 497999902  0.929981 -0.346909
 498333235  0.930178 -0.347645
 498666568  0.928544 -0.351375
 498999901  0.927826 -0.354494
 499333234  0.926342 -0.353738
 499666567  0.926138 -0.354505
 499999900  0.925911 -0.355566
