!File created by NanoVNA-F V2
# Hz S RI R 50
 400000000  0.226742 -0.553276
 400333333  0.536789 -0.222884
 400666666  0.544936 -0.156928
 400999999  0.573768 -0.099050
 401333332  0.615999 -0.052630
 401666665  0.663837 -0.024261
 401999998  0.713768 -0.007972
 402333331  0.755300 -0.005776
 402666664  0.793422 -0.009560
 402999997  0.824317 -0.019750
 403333330  0.850918 -0.030306
 403666663  0.869378 -0.039964
 403999996  0.885865 -0.056163
 404333329  0.899652 -0.065797
 404666662  0.911405 -0.078557
 404999995  0.921669 -0.091760
 405333328  0.928493 -0.099400
 405666661  0.931191 -0.110915
 405999994  0.940582 -0.116951
 406333327  0.942121 -0.124239
 406666660  0.944380 -0.133908
 406999993  0.947747 -0.142024
 407333326  0.950721 -0.147099
 407666659  0.954239 -0.154234
 407999992  0.958205 -0.158572
 408333325  0.958547 -0.162601
 408666658  0.958846 -0.169935
 408999991  0.961536 -0.173986
 409333324  0.960886 -0.179068
 409666657  0.960396 -0.182178
 409999990  0.963356 -0.184741
 410333323  0.962389 -0.191838
 410666656  0.962032 -0.193934
 410999989  0.962212 -0.196480
 411333322  0.962109 -0.200269
 411666655  0.963647 -0.202856
 411999988  0.964561 -0.205801
 412333321  0.964128 -0.209453
 412666654  0.963569 -0.212177
 412999987  0.965657 -0.213387
 413333320  0.963933 -0.218396
 413666653  0.964381 -0.221206
 413999986  0.962616 -0.222123
 414333319  0.962995 -0.223135
 414666652  0.964536 -0.225939
 414999985  0.962618 -0.227396
 415333318  0.962461 -0.228646
 415666651  0.965273 -0.231558
 415999984  0.962701 -0.234140
 416333317  0.962340 -0.236526
 416666650  0.965651 -0.236852
 416999983  0.964942 -0.238049
 417333316  0.963757 -0.239953
 417666649  0.961102 -0.242584
 417999982  0.962732 -0.244135
 418333315  0.961958 -0.245616
 418666648  0.965558 -0.244956
 418999981  0.963747 -0.247441
 419333314  0.960799 -0.249493
 419666647  0.961537 -0.250440
 419999980  0.961127 -0.253233
 420333313  0.963600 -0.252288
 420666646  0.959948 -0.256574
 420999979  0.962736 -0.254089
 421333312  0.961159 -0.260648
 421666645  0.959186 -0.258957
 421999978  0.960915 -0.259756
 422333311  0.960202 -0.263518
 422666644  0.959831 -0.262415
 422999977  0.961029 -0.264348
 423333310  0.960113 -0.263371
 423666643  0.959904 -0.267170
 423999976  0.959545 -0.266310
 424333309  0.958875 -0.269761
 424666642  0.956907 -0.269694
 424999975  0.957946 -0.273214
 425333308  0.959182 -0.268060
 425666641  0.958411 -0.274836
 425999974  0.955667 -0.272393
 426333307  0.957881 -0.275098
 426666640  0.954730 -0.277703
 426999973  0.954907 -0.277035
 427333306  0.955471 -0.278223
 427666639  0.957001 -0.280029
 427999972  0.957309 -0.281085
 428333305  0.954760 -0.280506
 428666638  0.954836 -0.284155
 428999971  0.952605 -0.284301
 429333304  0.956507 -0.284903
 429666637  0.954615 -0.285736
 429999970  0.955732 -0.285543
 430333303  0.951783 -0.285317
 430666636  0.954560 -0.288349
 430999969  0.953088 -0.292280
 431333302  0.953291 -0.291350
 431666635  0.953215 -0.292784
 431999968  0.953075 -0.293182
 432333301  0.951816 -0.293732
 432666634  0.951956 -0.292729
 432999967  0.950493 -0.295589
 433333300  0.953408 -0.297064
 433666633  0.950220 -0.300542
 433999966  0.950003 -0.301046
 434333299  0.950804 -0.300905
 434666632  0.949964 -0.301049
 434999965  0.951529 -0.299896
 435333298  0.950808 -0.303662
 435666631  0.946170 -0.308233
 435999964  0.948147 -0.307617
 436333297  0.946251 -0.306797
 436666630  0.948289 -0.307409
 436999963  0.946858 -0.308962
 437333296  0.946827 -0.308545
 437666629  0.945162 -0.311554
 437999962  0.945370 -0.312321
 438333295  0.947282 -0.312330
 438666628  0.945154 -0.315351
 438999961  0.943361 -0.316016
 439333294  0.944605 -0.317158
 439666627  0.942567 -0.319298
 439999960  0.944139 -0.319850
 440333293  0.940578 -0.320587
 440666626  0.942979 -0.321501
 440999959  0.943222 -0.318853
 441333292  0.940890 -0.322520
 441666625  0.937728 -0.326325
 441999958  0.938931 -0.326421
 442333291  0.936231 -0.328908
 442666624  0.937490 -0.327525
 442999957  0.938137 -0.328123
 443333290  0.937877 -0.328493
 443666623  0.936710 -0.331707
 443999956  0.936793 -0.334661
 444333289  0.935686 -0.334169
 444666622  0.934995 -0.337586
 444999955  0.935975 -0.336468
 445333288  0.931911 -0.338626
 445666621  0.935539 -0.338542
 445999954  0.932872 -0.341665
 446333287  0.931058 -0.344795
 446666620  0.930089 -0.345426
 446999953  0.929350 -0.345631
 447333286  0.929821 -0.349862
 447666619  0.926004 -0.352136
 447999952  0.925898 -0.352479
 448333285  0.924587 -0.353607
 448666618  0.925838 -0.354987
 448999951  0.922411 -0.358757
 449333284  0.920547 -0.361148
 449666617  0.921526 -0.359493
 449999950  0.920382 -0.361242
 450333283  0.919443 -0.361537
 450666616  0.916579 -0.366034
 450999949  0.917514 -0.370008
 451333282  0.919485 -0.372309
 451666615  0.913607 -0.373523
 451999948  0.913351 -0.375317
 452333281  0.910608 -0.378084
 452666614  0.908137 -0.380741
 452999947  0.907507 -0.381911
 453333280  0.905519 -0.386265
 453666613  0.900637 -0.388593
 453999946  0.899215 -0.394466
 454333279  0.899188 -0.396309
 454666612  0.900964 -0.401471
 454999945  0.891986 -0.403665
 455333278  0.890398 -0.404438
 455666611  0.888188 -0.406759
 455999944  0.884387 -0.407924
 456333277  0.878638 -0.416345
 456666610  0.875310 -0.418916
 456999943  0.866663 -0.423863
 457333276  0.863118 -0.426855
 457666609  0.859149 -0.430889
 457999942  0.857703 -0.434122
 458333275  0.846892 -0.443297
 458666608  0.839550 -0.447467
 458999941  0.830619 -0.452676
 459333274  0.822697 -0.457609
 459666607  0.809419 -0.465337
 459999940  0.798154 -0.468872
 460333273  0.785800 -0.471850
 460666606  0.769594 -0.481160
 460999939  0.749140 -0.483873
 461333272  0.728812 -0.487595
 461666605  0.706666 -0.490440
 461999938  0.679040 -0.488180
 462333271  0.649045 -0.485318
 462666604  0.616122 -0.472816
 462999937  0.578095 -0.456809
 463333270  0.539049 -0.433578
 463666603  0.502638 -0.398354
 463999936  0.470228 -0.347741
 464333269  0.450011 -0.284422
 464666602  0.445161 -0.216082
 464999935  0.460914 -0.147192
 465333268  0.493645 -0.084414
 465666601  0.538818 -0.034545
 465999934  0.592120 -0.001246
 466333267  0.648211  0.017607
 466666600  0.697318  0.022411
 466999933  0.742176  0.020185
 467333266  0.781371  0.010085
 467666599  0.810926 -0.004256
 467999932  0.835547 -0.017867
 468333265  0.858446 -0.033426
 468666598  0.873698 -0.047654
 468999931  0.891671 -0.062694
 469333264  0.901401 -0.076917
 469666597  0.911788 -0.088655
 469999930  0.919394 -0.103971
 470333263  0.926356 -0.112086
 470666596  0.930579 -0.122302
 470999929  0.935106 -0.134125
 471333262  0.938553 -0.138989
 471666595  0.941006 -0.150365
 471999928  0.944005 -0.158337
 472333261  0.947775 -0.164278
 472666594  0.948001 -0.172141
 472999927  0.951074 -0.177420
 473333260  0.950446 -0.182417
 473666593  0.951348 -0.188854
 473999926  0.952239 -0.195766
 474333259  0.952986 -0.200864
 474666592  0.954811 -0.205143
 474999925  0.952921 -0.210356
 475333258  0.954860 -0.211088
 475666591  0.954279 -0.219304
 475999924  0.955483 -0.218821
 476333257  0.954954 -0.227351
 476666590  0.955765 -0.227278
 476999923  0.952430 -0.231585
 477333256  0.955299 -0.233867
 477666589  0.955007 -0.236639
 477999922  0.954922 -0.241385
 478333255  0.955200 -0.242828
 478666588  0.955384 -0.247763
 478999921  0.955263 -0.246632
 479333254  0.953810 -0.252850
 479666587  0.955253 -0.253350
 479999920  0.953902 -0.253896
 480333253  0.953549 -0.259041
 480666586  0.952484 -0.260482
 480999919  0.952000 -0.265757
 481333252  0.953200 -0.264183
 481666585  0.953625 -0.265878
 481999918  0.953764 -0.268593
 482333251  0.954357 -0.270101
 482666584  0.950949 -0.273454
 482999917  0.951429 -0.275382
 483333250  0.950969 -0.276988
 483666583  0.947886 -0.276513
 483999916  0.951709 -0.279567
 484333249  0.947055 -0.284237
 484666582  0.950574 -0.280668
 484999915  0.951140 -0.283931
 485333248  0.950272 -0.287071
 485666581  0.950397 -0.288428
 485999914  0.951040 -0.289897
 486333247  0.950550 -0.292933
 486666580  0.947370 -0.293052
 486999913  0.949231 -0.293312
 487333246  0.946613 -0.295617
 487666579  0.947937 -0.298420
 487999912  0.947654 -0.296268
 488333245  0.946399 -0.300823
 488666578  0.946857 -0.300470
 488999911  0.947463 -0.304678
 489333244  0.946365 -0.305310
 489666577  0.946947 -0.307291
 489999910  0.945213 -0.306967
 490333243  0.944256 -0.307430
 490666576  0.943928 -0.312431
 490999909  0.942911 -0.313523
 491333242  0.945276 -0.311011
 491666575  0.942482 -0.314460
 491999908  0.941831 -0.315764
 492333241  0.942388 -0.315533
 492666574  0.942534 -0.317195
 492999907  0.940823 -0.320280
 493333240  0.941426 -0.322360
 493666573  0.940614 -0.320980
 493999906  0.941456 -0.320983
 494333239  0.941090 -0.321787
 494666572  0.940214 -0.327458
 494999905  0.940493 -0.327894
 495333238  0.938810 -0.327454
 495666571  0.936379 -0.331771
 495999904  0.937434 -0.329005
 496333237  0.934544 -0.332370
 496666570  0.936994 -0.332683
 496999903  0.934891 -0.337180
 497333236  0.935023 -0.336792
 497666569  0.935296 -0.336954
 497999902  0.936033 -0.335069
 498333235  0.934714 -0.339244
 498666568  0.936130 -0.339467
 498999901  0.933735 -0.343659
 499333234  0.932851 -0.344018
 499666567  0.934537 -0.342984
 499999900  0.932338 -0.346720
