!File created by NanoVNA-F V2
# Hz S RI R 50
     10000  0.203500 -0.095076 -0.019714  0.053341 0 0 0 0
  14676633  0.045347 -0.149958 -0.171906 -0.368173 0 0 0 0
  29343266  0.029333  0.085016  0.989915 -0.139236 0 0 0 0
  44009899  0.047646  0.121992  0.978292 -0.209500 0 0 0 0
  58676532  0.072778  0.156362  0.958300 -0.280265 0 0 0 0
  73343165  0.101965  0.186818  0.931400 -0.352425 0 0 0 0
  88009798  0.136764  0.211914  0.895452 -0.422743 0 0 0 0
 102676431  0.173835  0.232538  0.850433 -0.486294 0 0 0 0
 117343064  0.214397  0.246148  0.794400 -0.545584 0 0 0 0
 132009697  0.257664  0.255218  0.735726 -0.589807 0 0 0 0
 146676330  0.300871  0.256851  0.677403 -0.631918 0 0 0 0
 161342963  0.344239  0.252877  0.616355 -0.655380 0 0 0 0
 176009596  0.388587  0.244049  0.557699 -0.672040 0 0 0 0
 190676229  0.431173  0.228656  0.507672 -0.685810 0 0 0 0
 205342862  0.472741  0.209534  0.460422 -0.696551 0 0 0 0
 220009495  0.510216  0.185640  0.416383 -0.705478 0 0 0 0
 234676128  0.546155  0.157091  0.374471 -0.717185 0 0 0 0
 249342761  0.578801  0.123589  0.331597 -0.729818 0 0 0 0
 264009394  0.609080  0.086855  0.285539 -0.742637 0 0 0 0
 278676027  0.634954  0.047869  0.235055 -0.753141 0 0 0 0
 293342660  0.656956  0.009082  0.182812 -0.762005 0 0 0 0
 308009293  0.676414 -0.035277  0.126117 -0.764638 0 0 0 0
 322675926  0.692271 -0.080409  0.067068 -0.758751 0 0 0 0
 337342559  0.703726 -0.126886  0.008833 -0.746624 0 0 0 0
 352009192  0.714012 -0.174104 -0.048471 -0.722728 0 0 0 0
 366675825  0.717814 -0.225554 -0.104242 -0.691823 0 0 0 0
 381342458  0.718068 -0.275890 -0.150437 -0.655685 0 0 0 0
 396009091  0.714668 -0.327165 -0.189354 -0.613716 0 0 0 0
 410675724  0.704973 -0.376891 -0.208985 -0.576143 0 0 0 0
 425342357  0.695697 -0.426435 -0.240454 -0.526696 0 0 0 0
 440008990  0.676554 -0.481730 -0.254182 -0.486712 0 0 0 0
 454675623  0.658562 -0.528215 -0.263141 -0.449368 0 0 0 0
 469342256  0.629420 -0.580503 -0.267018 -0.413923 0 0 0 0
 484008889  0.599077 -0.623925 -0.268998 -0.384080 0 0 0 0
 498675522  0.567676 -0.668953 -0.269742 -0.357197 0 0 0 0
 513342155  0.529325 -0.709587 -0.269028 -0.335060 0 0 0 0
 528008788  0.490606 -0.745010 -0.269566 -0.315446 0 0 0 0
 542675421  0.446307 -0.778489 -0.269637 -0.295907 0 0 0 0
 557342054  0.406248 -0.813390 -0.272072 -0.279015 0 0 0 0
 572008687  0.359469 -0.839327 -0.273353 -0.262484 0 0 0 0
 586675320  0.308838 -0.863549 -0.276269 -0.244520 0 0 0 0
 601341953  0.263146 -0.883133 -0.279302 -0.227496 0 0 0 0
 616008586  0.213421 -0.902923 -0.279896 -0.211141 0 0 0 0
 630675219  0.161908 -0.915126 -0.280806 -0.192670 0 0 0 0
 645341852  0.111860 -0.925989 -0.287046 -0.177789 0 0 0 0
 660008485  0.068807 -0.946253 -0.286480 -0.159238 0 0 0 0
 674675118  0.016351 -0.939774 -0.287829 -0.136325 0 0 0 0
 689341751 -0.031629 -0.941280 -0.286432 -0.114357 0 0 0 0
 704008384 -0.087317 -0.946307 -0.282497 -0.091630 0 0 0 0
 718675017 -0.133013 -0.938848 -0.274805 -0.071527 0 0 0 0
 733341650 -0.187007 -0.936811 -0.265658 -0.051242 0 0 0 0
 748008283 -0.228277 -0.929454 -0.252857 -0.033803 0 0 0 0
 762674916 -0.276819 -0.924040 -0.238986 -0.017298 0 0 0 0
 777341549 -0.321463 -0.905886 -0.224237 -0.005052 0 0 0 0
 792008182 -0.365478 -0.896808 -0.210062  0.005015 0 0 0 0
 806674815 -0.409335 -0.869854 -0.194000  0.012529 0 0 0 0
 821341448 -0.458299 -0.850904 -0.178948  0.017691 0 0 0 0
 836008081 -0.495685 -0.829971 -0.165925  0.021383 0 0 0 0
 850674714 -0.538910 -0.809146 -0.154857  0.022924 0 0 0 0
 865341347 -0.573720 -0.785847 -0.144517  0.023655 0 0 0 0
 880007980 -0.618247 -0.757317 -0.134291  0.024745 0 0 0 0
 894674613 -0.648105 -0.726126 -0.127162  0.023318 0 0 0 0
 909341246 -0.687435 -0.701401 -0.120251  0.023426 0 0 0 0
 924007879 -0.713594 -0.666524 -0.113137  0.023708 0 0 0 0
 938674512 -0.746577 -0.631770 -0.106775  0.027335 0 0 0 0
 953341145 -0.775400 -0.598761 -0.102201  0.027835 0 0 0 0
 968007778 -0.798098 -0.567647 -0.097284  0.027414 0 0 0 0
 982674411 -0.821267 -0.536204 -0.092756  0.028621 0 0 0 0
 997341044 -0.847508 -0.497443 -0.087966  0.030555 0 0 0 0
1012007677 -0.871292 -0.457442 -0.082436  0.032931 0 0 0 0
1026674310 -0.888162 -0.427305 -0.077163  0.034731 0 0 0 0
1041340943 -0.904949 -0.384013 -0.070955  0.036482 0 0 0 0
1056007576 -0.924490 -0.346433 -0.064146  0.037529 0 0 0 0
1070674209 -0.933418 -0.309342 -0.056504  0.038011 0 0 0 0
1085340842 -0.945115 -0.266902 -0.049178  0.037374 0 0 0 0
1100007475 -0.956205 -0.235541 -0.041297  0.035914 0 0 0 0
1114674108 -0.967309 -0.197200 -0.034685  0.033069 0 0 0 0
1129340741 -0.972226 -0.156213 -0.028454  0.029940 0 0 0 0
1144007374 -0.977155 -0.112558 -0.023465  0.025833 0 0 0 0
1158674007 -0.982810 -0.080299 -0.018667  0.022120 0 0 0 0
1173340640 -0.984868 -0.037957 -0.014978  0.017936 0 0 0 0
1188007273 -0.985554 -0.011167 -0.011861  0.014219 0 0 0 0
1202673906 -0.986990  0.031304 -0.009066  0.010460 0 0 0 0
1217340539 -0.978666  0.067922 -0.006609  0.006975 0 0 0 0
1232007172 -0.983703  0.109008 -0.004280  0.003717 0 0 0 0
1246673805 -0.975862  0.145604 -0.001927  0.000330 0 0 0 0
1261340438 -0.968427  0.170283  0.000363 -0.003003 0 0 0 0
1276007071 -0.964765  0.205577  0.002515 -0.006697 0 0 0 0
1290673704 -0.960935  0.240501  0.004365 -0.010589 0 0 0 0
1305340337 -0.949847  0.272482  0.006545 -0.014530 0 0 0 0
1320006970 -0.933540  0.308887  0.007257 -0.019068 0 0 0 0
1334673603 -0.931668  0.336896  0.007884 -0.023077 0 0 0 0
1349340236 -0.925223  0.370790  0.009197 -0.027746 0 0 0 0
1364006869 -0.900498  0.397812  0.008281 -0.031588 0 0 0 0
1378673502 -0.891477  0.432469  0.007662 -0.036641 0 0 0 0
1393340135 -0.877702  0.468462  0.005729 -0.040407 0 0 0 0
1408006768 -0.862422  0.490196  0.005390 -0.043512 0 0 0 0
1422673401 -0.831942  0.528085  0.003407 -0.046234 0 0 0 0
1437340034 -0.820587  0.548201  0.002248 -0.049286 0 0 0 0
1452006667 -0.809402  0.569560  0.000940 -0.051840 0 0 0 0
1466673300 -0.783596  0.602760 -0.000355 -0.054175 0 0 0 0
1481339933 -0.766475  0.621301 -0.001393 -0.056401 0 0 0 0
1496006566 -0.734565  0.661973 -0.002429 -0.058883 0 0 0 0
1510673199 -0.726831  0.674365 -0.003826 -0.061862 0 0 0 0
1525339832 -0.701011  0.700037 -0.004776 -0.065234 0 0 0 0
1540006465 -0.682012  0.719796 -0.006201 -0.068054 0 0 0 0
1554673098 -0.662389  0.735163 -0.007685 -0.071861 0 0 0 0
1569339731 -0.634729  0.760076 -0.010715 -0.075508 0 0 0 0
1584006364 -0.610526  0.769824 -0.013589 -0.078845 0 0 0 0
1598672997 -0.585815  0.796632 -0.016557 -0.082113 0 0 0 0
1613339630 -0.551971  0.815335 -0.021960 -0.084970 0 0 0 0
1628006263 -0.529534  0.832751 -0.025175 -0.088022 0 0 0 0
1642672896 -0.510214  0.853330 -0.030883 -0.089644 0 0 0 0
1657339529 -0.479657  0.869644 -0.036467 -0.090267 0 0 0 0
1672006162 -0.453431  0.885300 -0.042399 -0.089047 0 0 0 0
1686672795 -0.421481  0.904644 -0.044012 -0.090869 0 0 0 0
1701339428 -0.394261  0.904542 -0.048602 -0.089862 0 0 0 0
1716006061 -0.355539  0.922666 -0.052616 -0.087846 0 0 0 0
1730672694 -0.319779  0.934115 -0.056359 -0.085160 0 0 0 0
1745339327 -0.292699  0.944677 -0.057684 -0.085820 0 0 0 0
1760005960 -0.257476  0.950541 -0.060290 -0.084717 0 0 0 0
1774672593 -0.235796  0.957339 -0.064225 -0.081294 0 0 0 0
1789339226 -0.195615  0.973754 -0.065918 -0.081673 0 0 0 0
1804005859 -0.161379  0.981685 -0.068172 -0.081105 0 0 0 0
1818672492 -0.141204  0.975407 -0.069527 -0.080636 0 0 0 0
1833339125 -0.096713  0.980212 -0.070349 -0.083806 0 0 0 0
1848005758 -0.056441  0.977130 -0.071588 -0.085987 0 0 0 0
1862672391 -0.025495  0.987064 -0.075847 -0.087291 0 0 0 0
1877339024  0.001581  0.988687 -0.079944 -0.088857 0 0 0 0
1892005657  0.035827  0.990725 -0.085238 -0.089943 0 0 0 0
1906672290  0.073782  0.980014 -0.089628 -0.091115 0 0 0 0
1921338923  0.111119  0.983696 -0.097343 -0.091887 0 0 0 0
1936005556  0.148560  0.978562 -0.104972 -0.091381 0 0 0 0
1950672189  0.177646  0.965441 -0.111989 -0.090755 0 0 0 0
1965338822  0.215932  0.953504 -0.120266 -0.089013 0 0 0 0
1980005455  0.247467  0.950323 -0.127879 -0.086377 0 0 0 0
1994672088  0.270506  0.935338 -0.136989 -0.080119 0 0 0 0
2009338721  0.315300  0.928552 -0.145181 -0.071607 0 0 0 0
2024005354  0.347256  0.899662 -0.150134 -0.066922 0 0 0 0
2038671987  0.379648  0.893647 -0.156032 -0.053374 0 0 0 0
2053338620  0.421763  0.878427 -0.158214 -0.043537 0 0 0 0
2068005253  0.456833  0.870351 -0.159107 -0.036654 0 0 0 0
2082671886  0.489554  0.838824 -0.155996 -0.028325 0 0 0 0
2097338519  0.528682  0.821888 -0.155509 -0.019713 0 0 0 0
2112005152  0.564033  0.791211 -0.152197 -0.013218 0 0 0 0
2126671785  0.597151  0.776063 -0.150419 -0.010102 0 0 0 0
2141338418  0.633300  0.742479 -0.149416 -0.005875 0 0 0 0
2156005051  0.665369  0.707598 -0.146238 -0.003806 0 0 0 0
2170671684  0.693038  0.678725 -0.145358 -0.002176 0 0 0 0
2185338317  0.736124  0.638664 -0.143272  0.001913 0 0 0 0
2200004950  0.747964  0.622158 -0.144341  0.000158 0 0 0 0
2214671583  0.780637  0.573264 -0.143970  0.001735 0 0 0 0
2229338216  0.811314  0.537384 -0.146178  0.004343 0 0 0 0
2244004849  0.821213  0.486454 -0.145536  0.005534 0 0 0 0
2258671482  0.829545  0.464562 -0.148382  0.005556 0 0 0 0
2273338115  0.858354  0.409545 -0.152978  0.006945 0 0 0 0
2288004748  0.888999  0.353495 -0.157311  0.013613 0 0 0 0
2302671381  0.916551  0.290670 -0.161805  0.009870 0 0 0 0
2317338014  0.908967  0.268611 -0.167338  0.015547 0 0 0 0
2332004647  0.916541  0.191158 -0.177639  0.018056 0 0 0 0
2346671280  0.931024  0.159604 -0.184632  0.027041 0 0 0 0
2361337913  0.933718  0.125958 -0.189461  0.034440 0 0 0 0
2376004546  0.940353  0.060216 -0.202675  0.051869 0 0 0 0
2390671179  0.926870  0.022611 -0.204041  0.068096 0 0 0 0
2405337812  0.924386 -0.025698 -0.204291  0.092764 0 0 0 0
2420004445  0.913381 -0.095901 -0.198705  0.112967 0 0 0 0
2434671078  0.936286 -0.152943 -0.185346  0.131501 0 0 0 0
2449337711  0.911773 -0.178662 -0.171449  0.146003 0 0 0 0
2464004344  0.889462 -0.257005 -0.150105  0.155696 0 0 0 0
2478670977  0.884610 -0.296016 -0.132729  0.157728 0 0 0 0
2493337610  0.861263 -0.340908 -0.118306  0.155039 0 0 0 0
2508004243  0.833057 -0.382076 -0.101466  0.153346 0 0 0 0
2522670876  0.805917 -0.445433 -0.092281  0.149176 0 0 0 0
2537337509  0.784422 -0.492638 -0.085990  0.140040 0 0 0 0
2552004142  0.762659 -0.518481 -0.082012  0.131355 0 0 0 0
2566670775  0.734865 -0.571551 -0.080813  0.126990 0 0 0 0
2581337408  0.683729 -0.609614 -0.081396  0.122441 0 0 0 0
2596004041  0.626914 -0.644446 -0.083533  0.120827 0 0 0 0
2610670674  0.598816 -0.701913 -0.089520  0.122143 0 0 0 0
2625337307  0.546622 -0.723300 -0.095597  0.119146 0 0 0 0
2640003940  0.534698 -0.762740 -0.100558  0.121645 0 0 0 0
2654670573  0.483489 -0.786495 -0.105301  0.122946 0 0 0 0
2669337206  0.451911 -0.829322 -0.111442  0.130187 0 0 0 0
2684003839  0.394438 -0.836278 -0.112797  0.139620 0 0 0 0
2698670472  0.333145 -0.836633 -0.118462  0.152368 0 0 0 0
2713337105  0.242894 -0.889617 -0.119312  0.171707 0 0 0 0
2728003738  0.222449 -0.886158 -0.126009  0.189557 0 0 0 0
2742670371  0.184126 -0.866272 -0.117988  0.209902 0 0 0 0
2757337004  0.131810 -0.897331 -0.104197  0.234157 0 0 0 0
2772003637  0.098411 -0.898580 -0.080950  0.249715 0 0 0 0
2786670270  0.066348 -0.880687 -0.053331  0.264028 0 0 0 0
2801336903  0.017319 -0.900158 -0.024435  0.270284 0 0 0 0
2816003536 -0.045648 -0.902885  0.007763  0.270945 0 0 0 0
2830670169 -0.101817 -0.909895  0.033208  0.267870 0 0 0 0
2845336802 -0.147005 -0.920570  0.052626  0.243440 0 0 0 0
2860003435 -0.184268 -0.895306  0.062190  0.227469 0 0 0 0
2874670068 -0.207662 -0.891593  0.075141  0.212072 0 0 0 0
2889336701 -0.256764 -0.877824  0.075062  0.197820 0 0 0 0
2904003334 -0.288274 -0.867685  0.074460  0.188223 0 0 0 0
2918669967 -0.318562 -0.844066  0.078251  0.177939 0 0 0 0
2933336600 -0.364151 -0.833995  0.075926  0.175420 0 0 0 0
2948003233 -0.404783 -0.811783  0.073004  0.171670 0 0 0 0
2962669866 -0.419169 -0.783302  0.071645  0.168052 0 0 0 0
2977336499 -0.477920 -0.760165  0.070026  0.168420 0 0 0 0
2992003132 -0.487460 -0.734029  0.068485  0.168800 0 0 0 0
3006669765 -0.498186 -0.752419  0.073069  0.171572 0 0 0 0
3021336398 -0.538647 -0.724279  0.068805  0.175912 0 0 0 0
3036003031 -0.573554 -0.698160  0.074397  0.181776 0 0 0 0
3050669664 -0.580311 -0.676811  0.078817  0.185492 0 0 0 0
3065336297 -0.609684 -0.657596  0.083673  0.195952 0 0 0 0
3080002930 -0.636335 -0.624847  0.095803  0.201898 0 0 0 0
3094669563 -0.623388 -0.613221  0.102235  0.213359 0 0 0 0
3109336196 -0.635576 -0.593813  0.123439  0.219845 0 0 0 0
3124002829 -0.669185 -0.591024  0.143148  0.231335 0 0 0 0
3138669462 -0.696393 -0.563119  0.173171  0.233885 0 0 0 0
3153336095 -0.695351 -0.528456  0.198286  0.234935 0 0 0 0
3168002728 -0.707387 -0.526962  0.233157  0.223633 0 0 0 0
3182669361 -0.714780 -0.489577  0.255775  0.211836 0 0 0 0
3197335994 -0.724596 -0.477683  0.284675  0.183212 0 0 0 0
3212002627 -0.733977 -0.462087  0.312859  0.161043 0 0 0 0
3226669260 -0.735265 -0.451776  0.331416  0.126034 0 0 0 0
3241335893 -0.744842 -0.419113  0.350162  0.087777 0 0 0 0
3256002526 -0.752151 -0.406652  0.359453  0.042409 0 0 0 0
3270669159 -0.768512 -0.398504  0.370136  0.016074 0 0 0 0
3285335792 -0.766975 -0.366950  0.363359 -0.027906 0 0 0 0
3300002425 -0.770142 -0.359433  0.362679 -0.069106 0 0 0 0
3314669058 -0.765345 -0.344555  0.336069 -0.116840 0 0 0 0
3329335691 -0.772927 -0.306801  0.308205 -0.160224 0 0 0 0
3344002324 -0.741234 -0.342289  0.278605 -0.191957 0 0 0 0
3358668957 -0.758220 -0.323739  0.227500 -0.225162 0 0 0 0
3373335590 -0.765327 -0.343080  0.179436 -0.238379 0 0 0 0
3388002223 -0.776303 -0.340758  0.121392 -0.241477 0 0 0 0
3402668856 -0.831383 -0.336848  0.075826 -0.225275 0 0 0 0
3417335489 -0.830524 -0.324937  0.039858 -0.195370 0 0 0 0
3432002122 -0.873345 -0.330932  0.017668 -0.167942 0 0 0 0
3446668755 -0.891108 -0.294816 -0.000613 -0.141132 0 0 0 0
3461335388 -0.930682 -0.254148 -0.005380 -0.120547 0 0 0 0
3476002021 -0.929278 -0.241999 -0.006110 -0.097991 0 0 0 0
3490668654 -0.947887 -0.217718 -0.007718 -0.083844 0 0 0 0
3505335287 -0.957753 -0.191197 -0.004478 -0.070325 0 0 0 0
3520001920 -0.970998 -0.175025 -0.000967 -0.058440 0 0 0 0
3534668553 -0.982311 -0.134210  0.001314 -0.048386 0 0 0 0
3549335186 -0.968742 -0.097230  0.002633 -0.039456 0 0 0 0
3564001819 -0.971010 -0.101492  0.006084 -0.030233 0 0 0 0
3578668452 -0.977284 -0.078376  0.008871 -0.023323 0 0 0 0
3593335085 -0.981144 -0.041097  0.012486 -0.015526 0 0 0 0
3608001718 -0.994653 -0.011064  0.017438 -0.008356 0 0 0 0
3622668351 -0.970943  0.044408  0.023087 -0.001392 0 0 0 0
3637334984 -0.971806  0.037033  0.030878  0.003901 0 0 0 0
3652001617 -0.994473  0.076733  0.038678  0.008874 0 0 0 0
3666668250 -0.982045  0.093227  0.046275  0.010593 0 0 0 0
3681334883 -0.978665  0.136369  0.055399  0.010766 0 0 0 0
3696001516 -0.953477  0.157457  0.064421  0.008272 0 0 0 0
3710668149 -0.951540  0.191442  0.069800  0.004823 0 0 0 0
3725334782 -0.951195  0.214334  0.075112  0.000594 0 0 0 0
3740001415 -0.938603  0.222747  0.077711 -0.003783 0 0 0 0
3754668048 -0.928309  0.240727  0.079313 -0.005731 0 0 0 0
3769334681 -0.904865  0.288035  0.078949 -0.007281 0 0 0 0
3784001314 -0.902134  0.288846  0.081616 -0.011085 0 0 0 0
3798667947 -0.895320  0.295162  0.082949 -0.009486 0 0 0 0
3813334580 -0.889430  0.336400  0.085637 -0.010582 0 0 0 0
3828001213 -0.897507  0.373836  0.086692 -0.011069 0 0 0 0
3842667846 -0.876813  0.385279  0.091634 -0.010448 0 0 0 0
3857334479 -0.839095  0.409014  0.096162 -0.009003 0 0 0 0
3872001112 -0.839051  0.427683  0.100624 -0.008859 0 0 0 0
3886667745 -0.801301  0.477256  0.110955 -0.012174 0 0 0 0
3901334378 -0.805347  0.474517  0.112446 -0.010747 0 0 0 0
3916001011 -0.802911  0.527527  0.126145 -0.010491 0 0 0 0
3930667644 -0.746497  0.508878  0.129092 -0.012518 0 0 0 0
3945334277 -0.723078  0.548957  0.140975 -0.015439 0 0 0 0
3960000910 -0.686851  0.548678  0.158529 -0.020016 0 0 0 0
3974667543 -0.730929  0.576929  0.169745 -0.017911 0 0 0 0
3989334176 -0.628265  0.589564  0.192413 -0.028517 0 0 0 0
4004000809 -0.618528  0.628568  0.208709 -0.045174 0 0 0 0
4018667442 -0.598894  0.619848  0.229058 -0.062141 0 0 0 0
4033334075 -0.581242  0.641634  0.246171 -0.093194 0 0 0 0
4048000708 -0.541764  0.636880  0.253351 -0.125918 0 0 0 0
4062667341 -0.500678  0.636932  0.254092 -0.167597 0 0 0 0
4077333974 -0.466281  0.670564  0.250486 -0.216807 0 0 0 0
4092000607 -0.479301  0.667181  0.226853 -0.267065 0 0 0 0
4106667240 -0.430639  0.663880  0.190825 -0.293997 0 0 0 0
4121333873 -0.392034  0.651321  0.133346 -0.311789 0 0 0 0
4136000506 -0.340224  0.686862  0.092274 -0.317744 0 0 0 0
4150667139 -0.265583  0.738431  0.064152 -0.303948 0 0 0 0
4165333772 -0.216568  0.676856  0.031906 -0.291239 0 0 0 0
4180000405 -0.265637  0.722566  0.013345 -0.272124 0 0 0 0
4194667038 -0.092089  0.724538  0.012533 -0.269979 0 0 0 0
4209333671 -0.058088  0.677753  0.007951 -0.259752 0 0 0 0
4224000304 -0.067352  0.709171  0.017341 -0.247946 0 0 0 0
4238666937 -0.046764  0.698400  0.017794 -0.259942 0 0 0 0
4253333570  0.062622  0.633659  0.015118 -0.256799 0 0 0 0
4268000203  0.143611  0.627756  0.017496 -0.271116 0 0 0 0
4282666836  0.203834  0.529894  0.008909 -0.285337 0 0 0 0
4297333469  0.240003  0.500245  0.006515 -0.316160 0 0 0 0
4312000102  0.281150  0.366353 -0.020511 -0.323151 0 0 0 0
4326666735  0.345143  0.328781 -0.037306 -0.355907 0 0 0 0
4341333368  0.318984  0.196147 -0.062220 -0.345494 0 0 0 0
4356000001  0.279912  0.077331 -0.092707 -0.354056 0 0 0 0
4370666634  0.245384  0.013275 -0.112927 -0.362253 0 0 0 0
4385333267  0.179477 -0.088734 -0.137248 -0.371001 0 0 0 0
4399999900  0.065355 -0.136590 -0.169339 -0.382060 0 0 0 0
