!File created by NanoVNA-F V2
# Hz S RI R 50
 800000000 -0.019322 -0.034365
 801000000 -0.062207 -0.044627
 802000000 -0.100199 -0.029651
 803000000 -0.122740  0.002954
 804000000 -0.121292  0.042930
 805000000 -0.095992  0.072030
 806000000 -0.057779  0.078652
 807000000 -0.020661  0.059355
 808000000 -0.005063  0.019291
 809000000 -0.094399 -0.019333
 810000000 -0.051830 -0.057707
 811000000 -0.102396 -0.063352
 812000000 -0.148516 -0.040399
 813000000 -0.175211  0.003168
 814000000 -0.175069  0.056538
 815000000 -0.141948  0.097135
 816000000 -0.094193  0.113925
 817000000 -0.047276  0.096976
 818000000 -0.021347  0.056297
 819000000 -0.025424  0.010219
 820000000 -0.056938 -0.024172
 821000000 -0.101567 -0.031760
 822000000 -0.141234 -0.012319
 823000000 -0.162512  0.025223
 824000000 -0.158458  0.067645
 825000000 -0.131860  0.099314
 826000000 -0.090844  0.108992
 827000000 -0.055035  0.093910
 828000000 -0.035746  0.061278
 829000000 -0.040285  0.025752
 830000000 -0.062547 -0.000401
 831000000 -0.092300 -0.007475
 832000000 -0.117572  0.002248
 833000000 -0.131142  0.022047
 834000000 -0.131834  0.042589
 835000000 -0.122285  0.055668
 836000000 -0.108102  0.056760
 837000000 -0.099485  0.048700
 838000000 -0.100116  0.037302
 839000000 -0.109831  0.028977
 840000000 -0.124909  0.027563
 841000000 -0.139318  0.033540
 842000000 -0.150145  0.047421
 843000000 -0.153077  0.063123
 844000000 -0.150206  0.079415
 845000000 -0.141110  0.091154
 846000000 -0.130942  0.097583
 847000000 -0.120141  0.099610
 848000000 -0.111532  0.098336
 849000000 -0.105104  0.096061
 850000000 -0.098719  0.091676
 851000000 -0.094553  0.088681
 852000000 -0.093891  0.080233
 853000000 -0.096704  0.073606
 854000000 -0.102552  0.068346
 855000000 -0.113786  0.068278
 856000000 -0.122661  0.073999
 857000000 -0.127424  0.086225
 858000000 -0.124880  0.100707
 859000000 -0.115334  0.110681
 860000000 -0.101732  0.114830
 861000000 -0.085921  0.111615
 862000000 -0.077701  0.101660
 863000000 -0.074382  0.090430
 864000000 -0.077053  0.078791
 865000000 -0.083270  0.072038
 866000000 -0.091324  0.069647
 867000000 -0.098116  0.071656
 868000000 -0.101647  0.075355
 869000000 -0.103723  0.078579
 870000000 -0.101973  0.081515
 871000000 -0.099618  0.081021
 872000000 -0.097083  0.078830
 873000000 -0.098263  0.075150
 874000000 -0.103087  0.069097
 875000000 -0.110139  0.066615
 876000000 -0.118157  0.068575
 877000000 -0.128539  0.071082
 878000000 -0.135282  0.082010
 879000000 -0.139293  0.093576
 880000000 -0.138379  0.108370
 881000000 -0.129627  0.120285
 882000000 -0.114509  0.128438
 883000000 -0.098392  0.128357
 884000000 -0.083062  0.122100
 885000000 -0.074947  0.107193
 886000000 -0.075547  0.090017
 887000000 -0.084330  0.075729
 888000000 -0.100201  0.069314
 889000000 -0.116869  0.073573
 890000000 -0.128196  0.084698
 891000000 -0.129860  0.101550
 892000000 -0.121438  0.114965
 893000000 -0.107237  0.119807
 894000000 -0.092208  0.114167
 895000000 -0.083161  0.099422
 896000000 -0.085781  0.082127
 897000000 -0.100172  0.065951
 898000000 -0.123216  0.062448
 899000000 -0.146468  0.071920
 900000000 -0.160761  0.095402
