!File created by NanoVNA-F V2
# Hz S RI R 50
 400000000  0.673558  0.289036
 400333333  0.685048  0.268524
 400666666  0.691015  0.243861
 400999999  0.703032  0.218918
 401333332  0.700598  0.198785
 401666665  0.707917  0.175477
 401999998  0.713191  0.151509
 402333331  0.718360  0.125625
 402666664  0.722441  0.101463
 402999997  0.725307  0.076407
 403333330  0.726952  0.052498
 403666663  0.727506  0.027935
 403999996  0.726975  0.000620
 404333329  0.729200 -0.028858
 404666662  0.727026 -0.053705
 404999995  0.721735 -0.076676
 405333328  0.716252 -0.100697
 405666661  0.710267 -0.119065
 405999994  0.705612 -0.142431
 406333327  0.698017 -0.166169
 406666660  0.689800 -0.190196
 406999993  0.680225 -0.213850
 407333326  0.671775 -0.233633
 407666659  0.662124 -0.256048
 407999992  0.651511 -0.276915
 408333325  0.638328 -0.297363
 408666658  0.620939 -0.324862
 408999991  0.608819 -0.343673
 409333324  0.594658 -0.362631
 409666657  0.579833 -0.379797
 409999990  0.564616 -0.397861
 410333323  0.545990 -0.414243
 410666656  0.532420 -0.424868
 410999989  0.513381 -0.443054
 411333322  0.496211 -0.456775
 411666655  0.477673 -0.471152
 411999988  0.459164 -0.483795
 412333321  0.440066 -0.493545
 412666654  0.422388 -0.503670
 412999987  0.404069 -0.514419
 413333320  0.384754 -0.522626
 413666653  0.364465 -0.530924
 413999986  0.345844 -0.538635
 414333319  0.328355 -0.545028
 414666652  0.308389 -0.552990
 414999985  0.288119 -0.555365
 415333318  0.272809 -0.561691
 415666651  0.255330 -0.564414
 415999984  0.238409 -0.568606
 416333317  0.220135 -0.572182
 416666650  0.199224 -0.575616
 416999983  0.186661 -0.579834
 417333316 -0.240441 -0.528499
 417666649  0.149517 -0.583651
 417999982  0.132553 -0.583280
 418333315  0.113495 -0.586863
 418666648  0.096368 -0.587494
 418999981  0.077320 -0.588829
 419333314  0.059906 -0.586693
 419666647  0.040412 -0.586483
 419999980  0.023610 -0.585050
 420333313  0.004403 -0.584910
 420666646 -0.015257 -0.581988
 420999979 -0.031466 -0.579282
 421333312 -0.052701 -0.574004
 421666645 -0.068772 -0.569294
 421999978 -0.086854 -0.564129
 422333311 -0.103384 -0.557696
 422666644 -0.119296 -0.551641
 422999977 -0.138737 -0.544743
 423333310 -0.149696 -0.538273
 423666643 -0.168624 -0.530156
 423999976 -0.183005 -0.522080
 424333309 -0.195727 -0.514079
 424666642 -0.209065 -0.507216
 424999975 -0.222975 -0.499116
 425333308 -0.237002 -0.490853
 425666641 -0.250532 -0.483136
 425999974 -0.263832 -0.473800
 426333307 -0.278370 -0.465258
 426666640 -0.291084 -0.457566
 426999973 -0.303421 -0.448038
 427333306 -0.316627 -0.438936
 427666639 -0.330678 -0.428093
 427999972 -0.343676 -0.419269
 428333305 -0.356831 -0.407645
 428666638 -0.371183 -0.398639
 428999971 -0.384890 -0.387042
 429333304 -0.397186 -0.374737
 429666637 -0.410935 -0.360494
 429999970 -0.423763 -0.348181
 430333303 -0.435387 -0.334840
 430666636 -0.449518 -0.319780
 430999969 -0.460502 -0.303401
 431333302 -0.472525 -0.286867
 431666635 -0.480794 -0.271448
 431999968 -0.493318 -0.256283
 432333301 -0.502225 -0.236867
 432666634 -0.509738 -0.218972
 432999967 -0.518857 -0.201393
 433333300 -0.528283 -0.181470
 433666633 -0.534551 -0.161898
 433999966 -0.540753 -0.143556
 434333299 -0.545476 -0.122879
 434666632 -0.549816 -0.102388
 434999965 -0.554182 -0.082784
 435333298 -0.557122 -0.060832
 435666631 -0.558569 -0.039431
 435999964 -0.560530 -0.018417
 436333297 -0.562133  0.001003
 436666630 -0.561416  0.023431
 436999963 -0.560593  0.043790
 437333296 -0.557921  0.065474
 437666629 -0.555190  0.088101
 437999962 -0.551940  0.110716
 438333295 -0.547859  0.129080
 438666628 -0.539017  0.154676
 438999961 -0.534563  0.174171
 439333294 -0.528258  0.193512
 439666627 -0.520123  0.214510
 439999960 -0.509363  0.235032
 440333293 -0.498169  0.254977
 440666626 -0.488842  0.273634
 440999959 -0.475291  0.294683
 441333292 -0.462340  0.309384
 441666625 -0.447758  0.326798
 441999958 -0.433000  0.343135
 442333291 -0.418362  0.360057
 442666624 -0.401790  0.372975
 442999957 -0.387088  0.387556
 443333290 -0.366076  0.399351
 443666623 -0.348876  0.411659
 443999956 -0.332699  0.422855
 444333289 -0.313213  0.432632
 444666622 -0.296138  0.443785
 444999955 -0.280317  0.452394
 445333288 -0.254493  0.463004
 445666621 -0.236849  0.469837
 445999954 -0.216837  0.474369
 446333287 -0.196496  0.479457
 446666620 -0.176246  0.485698
 446999953 -0.155073  0.487252
 447333286 -0.135043  0.490246
 447666619 -0.110940  0.488695
 447999952 -0.091475  0.488436
 448333285 -0.071476  0.485756
 448666618 -0.050608  0.480750
 448999951 -0.033240  0.475598
 449333284 -0.016324  0.471440
 449666617  0.002807  0.461445
 449999950  0.019108  0.451185
 450333283  0.033601  0.438052
 450666616  0.048037  0.425421
 450999949  0.058165  0.409738
 451333282  0.067039  0.397318
 451666615  0.075134  0.380218
 451999948  0.076858  0.362985
 452333281  0.076292  0.349909
 452666614  0.074605  0.337966
 452999947  0.070088  0.327576
 453333280  0.066833  0.309312
 453666613  0.055930  0.303768
 453999946  0.047706  0.301573
 454333279  0.041552  0.300521
 454666612  0.033567  0.302823
 454999945  0.025487  0.307042
 455333278  0.020124  0.314955
 455666611  0.018399  0.322469
 455999944  0.016524  0.339300
 456333277  0.017899  0.348502
 456666610  0.019154  0.358594
 456999943  0.021738  0.368361
 457333276  0.027784  0.380213
 457666609  0.031547  0.389652
 457999942  0.038264  0.398436
 458333275  0.050338  0.409186
 458666608  0.060777  0.418472
 458999941  0.068744  0.428230
 459333274  0.080782  0.437460
 459666607  0.094155  0.445467
 459999940  0.105091  0.454324
 460333273  0.120229  0.463026
 460666606  0.136037  0.467807
 460999939  0.150949  0.475116
 461333272  0.168462  0.480993
 461666605  0.180954  0.485638
 461999938  0.203334  0.489508
 462333271  0.221560  0.493342
 462666604  0.240900  0.496220
 462999937  0.259499  0.498592
 463333270  0.277166  0.499853
 463666603  0.299099  0.499806
 463999936  0.324032  0.499463
 464333269  0.348641  0.493768
 464666602  0.370844  0.494899
 464999935  0.394395  0.487093
 465333268  0.417178  0.480655
 465666601  0.440247  0.471659
 465999934  0.464463  0.460320
 466333267  0.489052  0.450349
 466666600  0.512479  0.435483
 466999933  0.533336  0.423377
 467333266  0.554425  0.405182
 467666599  0.575482  0.390050
 467999932  0.596007  0.370932
 468333265  0.614427  0.350850
 468666598  0.632999  0.332327
 468999931  0.651383  0.312369
 469333264  0.669107  0.290131
 469666597  0.683382  0.267194
 469999930  0.699121  0.241443
 470333263  0.711895  0.217079
 470666596  0.724433  0.187563
 470999929  0.736103  0.163387
 471333262  0.743148  0.138836
 471666595  0.751759  0.110970
 471999928  0.760484  0.080638
 472333261  0.765877  0.052456
 472666594  0.770559  0.023991
 472999927  0.773894 -0.002296
 473333260  0.774185 -0.031614
 473666593  0.776078 -0.062758
 473999926  0.775820 -0.090816
 474333259  0.773341 -0.118442
 474666592  0.772824 -0.146103
 474999925  0.765503 -0.176258
 475333258  0.761225 -0.203756
 475666591  0.756194 -0.233551
 475999924  0.747179 -0.262031
 476333257  0.737034 -0.288675
 476666590  0.727800 -0.316739
 476999923  0.716277 -0.342098
 477333256  0.705181 -0.369028
 477666589  0.691501 -0.395244
 477999922  0.676081 -0.421466
 478333255  0.659841 -0.445978
 478666588  0.644539 -0.471865
 478999921  0.628550 -0.492449
 479333254  0.609086 -0.516413
 479666587  0.589244 -0.537843
 479999920  0.572145 -0.554532
 480333253  0.548463 -0.576001
 480666586  0.526922 -0.596336
 480999919  0.503802 -0.613556
 481333252  0.484409 -0.632450
 481666585  0.459258 -0.646823
 481999918  0.435607 -0.664492
 482333251  0.411341 -0.678871
 482666584  0.385032 -0.692195
 482999917  0.361214 -0.704401
 483333250  0.334480 -0.715391
 483666583  0.309983 -0.726877
 483999916  0.282153 -0.735141
 484333249  0.255021 -0.742411
 484666582  0.229134 -0.752527
 484999915  0.202177 -0.758383
 485333248  0.174404 -0.764872
 485666581  0.145613 -0.769236
 485999914  0.118841 -0.773115
 486333247  0.088929 -0.777560
 486666580  0.062754 -0.777753
 486999913  0.032419 -0.781828
 487333246  0.005180 -0.780798
 487666579 -0.022790 -0.777474
 487999912 -0.048937 -0.776436
 488333245 -0.081636 -0.773490
 488666578 -0.107574 -0.770679
 488999911 -0.132144 -0.764019
 489333244 -0.164500 -0.759154
 489666577 -0.190671 -0.753579
 489999910 -0.220133 -0.741961
 490333243 -0.246641 -0.733961
 490666576 -0.275602 -0.722658
 490999909 -0.297599 -0.710309
 491333242 -0.325143 -0.697816
 491666575 -0.348922 -0.683312
 491999908 -0.372063 -0.668958
 492333241 -0.397338 -0.652459
 492666574 -0.420017 -0.637735
 492999907 -0.443419 -0.618902
 493333240 -0.466892 -0.599440
 493666573 -0.485944 -0.583819
 493999906 -0.507505 -0.562739
 494333239 -0.527274 -0.545046
 494666572 -0.544658 -0.523336
 494999905 -0.560320 -0.502245
 495333238 -0.578173 -0.479812
 495666571 -0.594974 -0.459023
 495999904 -0.608896 -0.435605
 496333237 -0.622959 -0.412933
 496666570 -0.636467 -0.389562
 496999903 -0.649381 -0.367096
 497333236 -0.662180 -0.340280
 497666569 -0.672652 -0.317270
 497999902 -0.683258 -0.292784
 498333235 -0.693794 -0.265461
 498666568 -0.700649 -0.242763
 498999901 -0.710995 -0.214055
 499333234 -0.717476 -0.190653
 499666567 -0.724053 -0.165634
 499999900 -0.730901 -0.140506
