!File created by NanoVNA-F V2
# Hz S RI R 50
     10000  0.153182 -0.180814 -0.502922 -0.940269 0 0 0 0
  14676633  0.050723  0.039889 -1.938434  0.917429 0 0 0 0
  29343266  0.485229  0.432425  0.583075 -0.557919 0 0 0 0
  44009899  0.694794  0.363944  0.340892 -0.576374 0 0 0 0
  58676532  0.818750  0.254833  0.175068 -0.523258 0 0 0 0
  73343165  0.888768  0.140010  0.073565 -0.452229 0 0 0 0
  88009798  0.925131  0.031600  0.014924 -0.386009 0 0 0 0
 102676431  0.939080 -0.069023 -0.018756 -0.332053 0 0 0 0
 117343064  0.937881 -0.166127 -0.038768 -0.289108 0 0 0 0
 132009697  0.925561 -0.259835 -0.050484 -0.255628 0 0 0 0
 146676330  0.899321 -0.350093 -0.059651 -0.229676 0 0 0 0
 161342963  0.860807 -0.442869 -0.066725 -0.211018 0 0 0 0
 176009596  0.805993 -0.539665 -0.073848 -0.196526 0 0 0 0
 190676229  0.726505 -0.639992 -0.084229 -0.186515 0 0 0 0
 205342862  0.611399 -0.744174 -0.098173 -0.177369 0 0 0 0
 220009495  0.432474 -0.847771 -0.117412 -0.172482 0 0 0 0
 234676128  0.144860 -0.910442 -0.163003 -0.158639 0 0 0 0
 249342761 -0.328870 -0.818266 -0.206733 -0.094312 0 0 0 0
 264009394 -0.808156 -0.109217 -0.204028  0.001139 0 0 0 0
 278676027 -0.232498  0.793298 -0.107404  0.070042 0 0 0 0
 293342660  0.564451  0.715052 -0.030819  0.039480 0 0 0 0
 308009293  0.877596  0.369958 -0.010532 -0.003214 0 0 0 0
 322675926  0.966903  0.096417 -0.015448 -0.027631 0 0 0 0
 337342559  0.976245 -0.091988 -0.022683 -0.039659 0 0 0 0
 352009192  0.957393 -0.238557 -0.030636 -0.043757 0 0 0 0
 366675825  0.926815 -0.350425 -0.035611 -0.044350 0 0 0 0
 381342458  0.888790 -0.441001 -0.039682 -0.043220 0 0 0 0
 396009091  0.850730 -0.517742 -0.043071 -0.041787 0 0 0 0
 410675724  0.806138 -0.581122 -0.044912 -0.040076 0 0 0 0
 425342357  0.765330 -0.635669 -0.047201 -0.036099 0 0 0 0
 440008990  0.718351 -0.687340 -0.047658 -0.033209 0 0 0 0
 454675623  0.675638 -0.735325 -0.048059 -0.031226 0 0 0 0
 469342256  0.629348 -0.770244 -0.048598 -0.029688 0 0 0 0
 484008889  0.581164 -0.806091 -0.049518 -0.027640 0 0 0 0
 498675522  0.537375 -0.838281 -0.049913 -0.026242 0 0 0 0
 513342155  0.487128 -0.866747 -0.051387 -0.025157 0 0 0 0
 528008788  0.442288 -0.889341 -0.052699 -0.024067 0 0 0 0
 542675421  0.391947 -0.910915 -0.055318 -0.022914 0 0 0 0
 557342054  0.346026 -0.933452 -0.058537 -0.020421 0 0 0 0
 572008687  0.296066 -0.948839 -0.062153 -0.018268 0 0 0 0
 586675320  0.245439 -0.960668 -0.066944 -0.013977 0 0 0 0
 601341953  0.201065 -0.971158 -0.071616 -0.007824 0 0 0 0
 616008586  0.150405 -0.977650 -0.075865  0.000185 0 0 0 0
 630675219  0.098787 -0.980848 -0.077916  0.010971 0 0 0 0
 645341852  0.053489 -0.985357 -0.079147  0.022253 0 0 0 0
 660008485  0.012763 -0.998112 -0.077153  0.036991 0 0 0 0
 674675118 -0.038448 -0.984392 -0.070812  0.055273 0 0 0 0
 689341751 -0.081799 -0.977860 -0.053233  0.073941 0 0 0 0
 704008384 -0.129651 -0.976959 -0.024305  0.081785 0 0 0 0
 718675017 -0.174861 -0.969894  0.004085  0.072093 0 0 0 0
 733341650 -0.222821 -0.965485  0.019918  0.051312 0 0 0 0
 748008283 -0.264313 -0.955670  0.022159  0.031698 0 0 0 0
 762674916 -0.310166 -0.943039  0.018319  0.019292 0 0 0 0
 777341549 -0.353900 -0.925302  0.013757  0.011509 0 0 0 0
 792008182 -0.392134 -0.912052  0.009447  0.007187 0 0 0 0
 806674815 -0.438331 -0.884478  0.006308  0.003750 0 0 0 0
 821341448 -0.480666 -0.864118  0.003249  0.001671 0 0 0 0
 836008081 -0.517515 -0.842526  0.000881  0.000049 0 0 0 0
 850674714 -0.557657 -0.819578 -0.001401 -0.001086 0 0 0 0
 865341347 -0.591497 -0.793449 -0.003572 -0.001742 0 0 0 0
 880007980 -0.633695 -0.763466 -0.005534 -0.002035 0 0 0 0
 894674613 -0.662513 -0.730895 -0.007056 -0.002080 0 0 0 0
 909341246 -0.694903 -0.709160 -0.008576 -0.001919 0 0 0 0
 924007879 -0.722035 -0.670413 -0.009562 -0.001417 0 0 0 0
 938674512 -0.752039 -0.638742 -0.010621 -0.000972 0 0 0 0
 953341145 -0.780447 -0.605361 -0.011386 -0.000473 0 0 0 0
 968007778 -0.804218 -0.573847 -0.012142 -0.000408 0 0 0 0
 982674411 -0.828079 -0.539082 -0.013154  0.000214 0 0 0 0
 997341044 -0.854268 -0.499533 -0.013803  0.001097 0 0 0 0
1012007677 -0.869158 -0.467297 -0.014375  0.001883 0 0 0 0
1026674310 -0.893788 -0.429016 -0.015033  0.002779 0 0 0 0
1041340943 -0.906974 -0.392039 -0.015599  0.003751 0 0 0 0
1056007576 -0.924424 -0.349770 -0.015912  0.004938 0 0 0 0
1070674209 -0.933977 -0.317542 -0.016107  0.006414 0 0 0 0
1085340842 -0.946297 -0.278364 -0.016043  0.008011 0 0 0 0
1100007475 -0.956362 -0.244835 -0.015074  0.009637 0 0 0 0
1114674108 -0.969870 -0.202601 -0.014108  0.010914 0 0 0 0
1129340741 -0.974992 -0.166471 -0.013058  0.011423 0 0 0 0
1144007374 -0.976544 -0.130917 -0.012289  0.012004 0 0 0 0
1158674007 -0.983027 -0.089188 -0.011443  0.012653 0 0 0 0
1173340640 -0.985878 -0.041483 -0.010587  0.013308 0 0 0 0
1188007273 -0.990001 -0.020884 -0.009956  0.014222 0 0 0 0
1202673906 -0.993738  0.022617 -0.008879  0.014955 0 0 0 0
1217340539 -0.986543  0.058139 -0.008159  0.015673 0 0 0 0
1232007172 -0.989690  0.095260 -0.007244  0.016995 0 0 0 0
1246673805 -0.977990  0.132074 -0.005378  0.018597 0 0 0 0
1261340438 -0.971173  0.169962 -0.002391  0.020185 0 0 0 0
1276007071 -0.967472  0.197587  0.001108  0.020878 0 0 0 0
1290673704 -0.961831  0.232902  0.005447  0.020479 0 0 0 0
1305340337 -0.950108  0.268612  0.009688  0.019210 0 0 0 0
1320006970 -0.940192  0.301172  0.013974  0.015860 0 0 0 0
1334673603 -0.935531  0.336305  0.017457  0.011884 0 0 0 0
1349340236 -0.925545  0.365076  0.020692  0.006439 0 0 0 0
1364006869 -0.904909  0.392758  0.021085 -0.001995 0 0 0 0
1378673502 -0.891494  0.425786  0.017705 -0.009529 0 0 0 0
1393340135 -0.881267  0.456156  0.011398 -0.014007 0 0 0 0
1408006768 -0.868759  0.486362  0.005538 -0.015216 0 0 0 0
1422673401 -0.840687  0.522320  0.000193 -0.014368 0 0 0 0
1437340034 -0.826565  0.546034 -0.002884 -0.012302 0 0 0 0
1452006667 -0.816202  0.566000 -0.005025 -0.010568 0 0 0 0
1466673300 -0.798013  0.597229 -0.006449 -0.009292 0 0 0 0
1481339933 -0.774959  0.615932 -0.007686 -0.007758 0 0 0 0
1496006566 -0.757583  0.643169 -0.008201 -0.006412 0 0 0 0
1510673199 -0.740208  0.662486 -0.008754 -0.005303 0 0 0 0
1525339832 -0.719217  0.692954 -0.009104 -0.004341 0 0 0 0
1540006465 -0.698797  0.714650 -0.009378 -0.003340 0 0 0 0
1554673098 -0.677610  0.728489 -0.009303 -0.002682 0 0 0 0
1569339731 -0.652372  0.757809 -0.009472 -0.002084 0 0 0 0
1584006364 -0.635330  0.763739 -0.009581 -0.001622 0 0 0 0
1598672997 -0.615486  0.790663 -0.009775 -0.001022 0 0 0 0
1613339630 -0.578709  0.805037 -0.010060 -0.000357 0 0 0 0
1628006263 -0.553530  0.828269 -0.010035  0.000298 0 0 0 0
1642672896 -0.539593  0.844068 -0.010038  0.000847 0 0 0 0
1657339529 -0.514030  0.858733 -0.010112  0.001779 0 0 0 0
1672006162 -0.486091  0.874864 -0.009946  0.002878 0 0 0 0
1686672795 -0.455057  0.897113 -0.009689  0.003818 0 0 0 0
1701339428 -0.429613  0.894318 -0.008837  0.004995 0 0 0 0
1716006061 -0.400718  0.908313 -0.007607  0.005831 0 0 0 0
1730672694 -0.365870  0.934305 -0.005960  0.006193 0 0 0 0
1745339327 -0.341707  0.935428 -0.004600  0.005917 0 0 0 0
1760005960 -0.300549  0.946869 -0.003347  0.005709 0 0 0 0
1774672593 -0.299156  0.951495 -0.002202  0.005521 0 0 0 0
1789339226 -0.262464  0.964952 -0.000615  0.004454 0 0 0 0
1804005859 -0.225583  0.978073  0.000600  0.002888 0 0 0 0
1818672492 -0.202589  0.971441  0.000996  0.001702 0 0 0 0
1833339125 -0.168180  0.985254  0.001732  0.000748 0 0 0 0
1848005758 -0.124823  0.981086  0.002519 -0.000508 0 0 0 0
1862672391 -0.102291  0.990857  0.003455 -0.001839 0 0 0 0
1877339024 -0.072240  0.996694  0.004654 -0.004135 0 0 0 0
1892005657 -0.048895  1.006291  0.004646 -0.007315 0 0 0 0
1906672290 -0.014703  0.997301  0.003669 -0.010216 0 0 0 0
1921338923  0.014431  1.000431  0.002487 -0.012828 0 0 0 0
1936005556  0.045529  0.998599  0.000971 -0.015712 0 0 0 0
1950672189  0.084306  0.992942 -0.001692 -0.018466 0 0 0 0
1965338822  0.115920  0.988884 -0.005226 -0.020837 0 0 0 0
1980005455  0.154977  0.983703 -0.009437 -0.021883 0 0 0 0
1994672088  0.180008  0.972295 -0.013326 -0.021278 0 0 0 0
2009338721  0.219105  0.977012 -0.016174 -0.020259 0 0 0 0
2024005354  0.252125  0.950241 -0.018312 -0.019775 0 0 0 0
2038671987  0.273119  0.957274 -0.021292 -0.017836 0 0 0 0
2053338620  0.315077  0.938824 -0.022829 -0.016414 0 0 0 0
2068005253  0.344517  0.932831 -0.023698 -0.015564 0 0 0 0
2082671886  0.382349  0.908603 -0.024790 -0.014472 0 0 0 0
2097338519  0.420360  0.895809 -0.025953 -0.013061 0 0 0 0
2112005152  0.456194  0.877643 -0.025996 -0.012719 0 0 0 0
2126671785  0.495314  0.856418 -0.026039 -0.013199 0 0 0 0
2141338418  0.533112  0.838587 -0.026949 -0.014960 0 0 0 0
2156005051  0.570253  0.796842 -0.028801 -0.016309 0 0 0 0
2170671684  0.604167  0.783145 -0.031499 -0.017635 0 0 0 0
2185338317  0.649762  0.750508 -0.033985 -0.019134 0 0 0 0
2200004950  0.676849  0.716095 -0.037133 -0.021396 0 0 0 0
2214671583  0.714843  0.685466 -0.042669 -0.023676 0 0 0 0
2229338216  0.762546  0.634877 -0.049050 -0.024871 0 0 0 0
2244004849  0.783254  0.567353 -0.055528 -0.025140 0 0 0 0
2258671482  0.813468  0.546172 -0.062903 -0.025358 0 0 0 0
2273338115  0.856894  0.467370 -0.072438 -0.028818 0 0 0 0
2288004748  0.890018  0.386378 -0.086582 -0.028919 0 0 0 0
2302671381  0.934677  0.262929 -0.102484 -0.031438 0 0 0 0
2317338014  0.926874  0.159014 -0.127550 -0.033693 0 0 0 0
2332004647  0.891014 -0.042199 -0.165954 -0.029517 0 0 0 0
2346671280  0.800321 -0.256861 -0.232486 -0.005470 0 0 0 0
2361337913  0.418643 -0.515043 -0.324348  0.087965 0 0 0 0
2376004546 -0.227481 -0.309141 -0.303294  0.350542 0 0 0 0
2390671179 -0.305643  0.399841  0.002005  0.414185 0 0 0 0
2405337812 -0.747843 -0.054946 -0.172245 -0.976393 0 0 0 0
2420004445  0.364147  0.746733  0.139928  0.171009 0 0 0 0
2434671078  0.547462  0.694749  0.127035  0.111350 0 0 0 0
2449337711  0.658178  0.607305  0.111616  0.073047 0 0 0 0
2464004344  0.742073  0.527608  0.094170  0.047987 0 0 0 0
2478670977  0.813242  0.457068  0.074858  0.030701 0 0 0 0
2493337610  0.856856  0.385040  0.058785  0.024633 0 0 0 0
2508004243  0.875079  0.311267  0.047315  0.020954 0 0 0 0
2522670876  0.909566  0.236570  0.038791  0.021446 0 0 0 0
2537337509  0.929938  0.173826  0.030731  0.022291 0 0 0 0
2552004142  0.959417  0.112829  0.026058  0.025090 0 0 0 0
2566670775  0.943376  0.040455  0.023836  0.027768 0 0 0 0
2581337408  0.940101 -0.023553  0.023305  0.029963 0 0 0 0
2596004041  0.941040 -0.077895  0.022413  0.032049 0 0 0 0
2610670674  0.927790 -0.138885  0.024089  0.034728 0 0 0 0
2625337307  0.915339 -0.233614  0.026911  0.033603 0 0 0 0
2640003940  0.917507 -0.261852  0.028622  0.031869 0 0 0 0
2654670573  0.887389 -0.329853  0.029614  0.029772 0 0 0 0
2669337206  0.869155 -0.415267  0.030089  0.026180 0 0 0 0
2684003839  0.860895 -0.453580  0.029357  0.024859 0 0 0 0
2698670472  0.818867 -0.479061  0.029064  0.023796 0 0 0 0
2713337105  0.773255 -0.574150  0.028423  0.022663 0 0 0 0
2728003738  0.733883 -0.604308  0.027685  0.022525 0 0 0 0
2742670371  0.662593 -0.643587  0.027039  0.020958 0 0 0 0
2757337004  0.642696 -0.691164  0.026874  0.020186 0 0 0 0
2772003637  0.587712 -0.725596  0.025817  0.018343 0 0 0 0
2786670270  0.567621 -0.742992  0.024975  0.018733 0 0 0 0
2801336903  0.530380 -0.802268  0.024120  0.018649 0 0 0 0
2816003536  0.458014 -0.836758  0.024126  0.019727 0 0 0 0
2830670169  0.381588 -0.858073  0.024117  0.018986 0 0 0 0
2845336802  0.330467 -0.905849  0.024460  0.019239 0 0 0 0
2860003435  0.276382 -0.910759  0.023629  0.018415 0 0 0 0
2874670068  0.246577 -0.919342  0.024214  0.018800 0 0 0 0
2889336701  0.181848 -0.941480  0.024231  0.019251 0 0 0 0
2904003334  0.127254 -0.948955  0.024455  0.018586 0 0 0 0
2918669967  0.087314 -0.941103  0.024825  0.017672 0 0 0 0
2933336600  0.030081 -0.947021  0.023657  0.018046 0 0 0 0
2948003233 -0.033827 -0.952955  0.022971  0.018884 0 0 0 0
2962669866 -0.080777 -0.962485  0.022968  0.020109 0 0 0 0
2977336499 -0.148102 -0.937023  0.023367  0.021289 0 0 0 0
2992003132 -0.189410 -0.931147  0.024067  0.021975 0 0 0 0
3006669765 -0.207109 -0.938983  0.025266  0.022827 0 0 0 0
3021336398 -0.280181 -0.939026  0.027005  0.023702 0 0 0 0
3036003031 -0.341981 -0.919741  0.028256  0.024639 0 0 0 0
3050669664 -0.393785 -0.912240  0.030741  0.025054 0 0 0 0
3065336297 -0.423665 -0.865730  0.032269  0.024560 0 0 0 0
3080002930 -0.504681 -0.843150  0.034706  0.023626 0 0 0 0
3094669563 -0.491221 -0.816614  0.035654  0.024820 0 0 0 0
3109336196 -0.536010 -0.790017  0.038898  0.023454 0 0 0 0
3124002829 -0.585878 -0.778760  0.042746  0.021982 0 0 0 0
3138669462 -0.631661 -0.756418  0.044948  0.019440 0 0 0 0
3153336095 -0.648510 -0.708740  0.046659  0.017387 0 0 0 0
3168002728 -0.685177 -0.703456  0.048257  0.013890 0 0 0 0
3182669361 -0.722104 -0.680397  0.048977  0.012878 0 0 0 0
3197335994 -0.753591 -0.636587  0.048763  0.008616 0 0 0 0
3212002627 -0.775882 -0.613180  0.049961  0.006307 0 0 0 0
3226669260 -0.803121 -0.575960  0.049491  0.003919 0 0 0 0
3241335893 -0.823645 -0.533319  0.050685  0.001505 0 0 0 0
3256002526 -0.842044 -0.502982  0.051755 -0.000553 0 0 0 0
3270669159 -0.864832 -0.470467  0.052064 -0.002920 0 0 0 0
3285335792 -0.887903 -0.448833  0.053032 -0.005992 0 0 0 0
3300002425 -0.901140 -0.409050  0.051261 -0.008062 0 0 0 0
3314669058 -0.907594 -0.386965  0.049863 -0.013049 0 0 0 0
3329335691 -0.927523 -0.324746  0.049100 -0.015997 0 0 0 0
3344002324 -0.922011 -0.323714  0.047748 -0.019721 0 0 0 0
3358668957 -0.948313 -0.268181  0.043662 -0.022856 0 0 0 0
3373335590 -0.957183 -0.234049  0.040563 -0.023831 0 0 0 0
3388002223 -0.968321 -0.184720  0.038208 -0.023690 0 0 0 0
3402668856 -0.983118 -0.167453  0.036799 -0.023832 0 0 0 0
3417335489 -0.991588 -0.143809  0.035878 -0.024737 0 0 0 0
3432002122 -0.986405 -0.114093  0.033548 -0.025572 0 0 0 0
3446668755 -0.985184 -0.058599  0.032226 -0.024711 0 0 0 0
3461335388 -0.994240 -0.021497  0.032121 -0.024655 0 0 0 0
3476002021 -0.994739 -0.003616  0.031389 -0.025115 0 0 0 0
3490668654 -0.991097  0.040174  0.030622 -0.027622 0 0 0 0
3505335287 -1.003468  0.069611  0.031707 -0.027073 0 0 0 0
3520001920 -0.999764  0.108373  0.032396 -0.027838 0 0 0 0
3534668553 -0.990026  0.165394  0.032108 -0.030758 0 0 0 0
3549335186 -0.955419  0.203614  0.032638 -0.034021 0 0 0 0
3564001819 -0.951932  0.218717  0.032261 -0.037512 0 0 0 0
3578668452 -0.943846  0.268890  0.030939 -0.043745 0 0 0 0
3593335085 -0.933501  0.301160  0.028890 -0.048513 0 0 0 0
3608001718 -0.920702  0.365365  0.025365 -0.057872 0 0 0 0
3622668351 -0.867694  0.428235  0.016770 -0.065783 0 0 0 0
3637334984 -0.855682  0.494127  0.004476 -0.073793 0 0 0 0
3652001617 -0.794551  0.565320 -0.012860 -0.082323 0 0 0 0
3666668250 -0.674957  0.659178 -0.033465 -0.079781 0 0 0 0
3681334883 -0.470114  0.722563 -0.065037 -0.078166 0 0 0 0
3696001516 -0.123843  0.697561 -0.109372 -0.054929 0 0 0 0
3710668149  0.266010  0.219010 -0.145321  0.019225 0 0 0 0
3725334782 -0.125977 -0.402304 -0.088812  0.115410 0 0 0 0
3740001415 -0.598059 -0.376471  0.000732  0.117155 0 0 0 0
3754668048 -0.813366 -0.211028  0.039940  0.080586 0 0 0 0
3769334681 -0.861477 -0.048618  0.051422  0.049458 0 0 0 0
3784001314 -0.926295  0.043429  0.057472  0.029589 0 0 0 0
3798667947 -0.926865  0.111653  0.055986  0.016453 0 0 0 0
3813334580 -0.913357  0.194092  0.055209  0.006807 0 0 0 0
3828001213 -0.920352  0.239748  0.054437 -0.002919 0 0 0 0
3842667846 -0.904002  0.293310  0.053900 -0.010773 0 0 0 0
3857334479 -0.892273  0.364356  0.051346 -0.019040 0 0 0 0
3872001112 -0.866418  0.385670  0.048886 -0.026262 0 0 0 0
3886667745 -0.850207  0.393332  0.046113 -0.033734 0 0 0 0
3901334378 -0.833758  0.440343  0.041551 -0.038342 0 0 0 0
3916001011 -0.829854  0.491086  0.037062 -0.044690 0 0 0 0
3930667644 -0.789600  0.497240  0.028219 -0.047097 0 0 0 0
3945334277 -0.772141  0.514884  0.022615 -0.049739 0 0 0 0
3960000910 -0.769443  0.527688  0.016826 -0.051474 0 0 0 0
3974667543 -0.796290  0.540952  0.011274 -0.051570 0 0 0 0
3989334176 -0.722127  0.578753  0.004213 -0.053044 0 0 0 0
4004000809 -0.705187  0.607436 -0.004764 -0.051087 0 0 0 0
4018667442 -0.730564  0.632210 -0.011862 -0.050019 0 0 0 0
4033334075 -0.707381  0.649807 -0.021211 -0.041725 0 0 0 0
4048000708 -0.707459  0.653657 -0.025397 -0.029995 0 0 0 0
4062667341 -0.655507  0.679176 -0.020411 -0.016987 0 0 0 0
4077333974 -0.625369  0.719701 -0.011888 -0.012465 0 0 0 0
4092000607 -0.647810  0.707149 -0.005896 -0.012876 0 0 0 0
4106667240 -0.597676  0.724760 -0.003324 -0.015049 0 0 0 0
4121333873 -0.570651  0.700792 -0.001346 -0.016870 0 0 0 0
4136000506 -0.529913  0.753748 -0.000963 -0.018092 0 0 0 0
4150667139 -0.491620  0.857913  0.000138 -0.019553 0 0 0 0
4165333772 -0.484734  0.765391 -0.000495 -0.019865 0 0 0 0
4180000405 -0.495577  0.801198 -0.001089 -0.020378 0 0 0 0
4194667038 -0.426637  0.832646  0.000024 -0.021637 0 0 0 0
4209333671 -0.349440  0.800191 -0.000113 -0.023701 0 0 0 0
4224000304 -0.431634  0.872060 -0.000500 -0.024124 0 0 0 0
4238666937 -0.388415  0.812276 -0.001027 -0.025860 0 0 0 0
4253333570 -0.346663  0.843444 -0.001882 -0.027757 0 0 0 0
4268000203 -0.294449  0.914018 -0.003933 -0.030164 0 0 0 0
4282666836 -0.266925  0.880987 -0.004659 -0.031318 0 0 0 0
4297333469 -0.266799  0.868705 -0.006839 -0.033386 0 0 0 0
4312000102 -0.179714  0.841003 -0.012086 -0.035141 0 0 0 0
4326666735 -0.193004  0.924246 -0.015483 -0.035267 0 0 0 0
4341333368 -0.166784  0.877976 -0.022374 -0.035440 0 0 0 0
4356000001 -0.132424  0.843506 -0.027524 -0.033494 0 0 0 0
4370666634 -0.127970  0.934131 -0.031093 -0.029927 0 0 0 0
4385333267 -0.088955  0.860618 -0.035125 -0.026147 0 0 0 0
4399999900 -0.032026  0.885359 -0.036625 -0.022929 0 0 0 0
